 # Version information for this restart file 
 # current date 2022-11-29 20:39:44.412
 # current working dir /scratch/work/courses/CHEM-GA-2671-2022fa/rmo302/comp-lab-class/Week12/Runs/Proton
 # Program compiled at                              Sat Dec 12 18:27:15 EST 2020
 # Program compiled on                                         cs001.nyu.cluster
 # Program compiled for                                                nyu-intel
 # Source code revision number                                       git:8c64c6e
 &GLOBAL
   PRINT_LEVEL  LOW
   PROJECT_NAME proton_amid_1ps_every0.5fs
   RUN_TYPE  MD
   WALLTIME 21600
 &END GLOBAL
 &MOTION
   &GEO_OPT
     OPTIMIZER  BFGS
     MAX_ITER  100
     MAX_DR     3.0000000000000001E-03
     &BFGS
     &END BFGS
   &END GEO_OPT
   &MD
     ENSEMBLE  NVT
     STEPS  2000
     TIMESTEP     4.9999999999999994E-01
     STEP_START_VAL  1998
     TIME_START_VAL     9.9899999999998238E+02
     ECONS_START_VAL    -1.1027144996975105E+03
     TEMPERATURE     3.0000000000000000E+02
     &THERMOSTAT
       TYPE  GLE
       REGION  MASSIVE
       &GLE
         NDIM  5
         A_SCALE     1.0000000000000000E+00
         A_LIST     1.8595758612559999E+02    2.7263853498399998E-01    1.1526100454610001E+01   -3.6414578262600003E+01 \
             2.3173375816020001E+02
         A_LIST    -2.7809524712060002E-01    8.5951591808710006E-05    7.2189048017650004E-01   -1.9844539343859999E-01 \
             4.2409257583420001E-01
         A_LIST    -1.4825808131210000E+01   -7.2189048017650004E-01    1.3590902121280000E+00    5.1498896280349999E+00 \
            -9.9949268450990001E+00
         A_LIST    -1.0372189126880000E+01    1.9844539343859999E-01   -5.1498896280349999E+00    2.6661910891169999E+01 \
             1.1507715495310000E+01
         A_LIST     2.1801346360420001E+02   -4.2409257583420001E-01    9.9949268450990001E+00   -1.1507715495310000E+01 \
             3.0958394565589998E+02
         &THERMOSTAT_ENERGY
              -9.1013039951394308E-04
               1.0148218269139734E-03
              -5.1976134549514483E-03
               5.8123608530460972E-03
              -1.1712395993374869E-02
              -8.2262584504046166E-04
               1.9470158545200470E-03
              -5.5535475714207734E-03
               1.3868412646849793E-02
               3.2703212867534149E-03
               6.4333375107345136E-03
              -1.7819660254564319E-03
              -9.0324493841176072E-03
               5.2167982525008684E-04
               2.4298539725982177E-03
              -1.0577558876416693E-02
               2.9339749939041784E-04
              -4.3574190906457916E-03
              -2.1318046783286694E-04
               4.1017920155694436E-04
              -1.9460512408852307E-03
               1.0813358555301460E-02
              -1.3531521222534912E-02
              -4.2025277641398956E-03
               4.8420874019364131E-03
              -8.2329859157345264E-03
               1.0254216812880443E-03
               3.9852903604282695E-03
               9.7525906956341894E-03
               4.0675585894812873E-03
               2.6744490608380262E-03
              -1.7056908340995838E-03
              -3.6170728669247636E-04
               9.0665264514885324E-03
              -8.7541089517321896E-03
               1.0685840634716674E-02
               2.2627238202151457E-03
              -6.4823400342877129E-03
              -7.3222304423889157E-04
               3.1911175214583093E-04
               8.1838166035376296E-03
              -1.2701048339060682E-02
               1.0409977181035273E-02
               4.1583174068195294E-03
               8.5374222416796349E-04
              -2.5128532725774127E-03
              -8.7080587208560167E-03
               5.1829193140345573E-03
              -2.1630090980242563E-03
               3.2809701039655218E-03
              -3.5223401346140999E-03
              -6.7702034549920430E-04
              -2.5681547504839901E-03
               1.9418316615225377E-03
              -8.7091536519511570E-03
               9.4338192450025178E-03
              -3.3573215516962780E-03
              -2.9886881904229771E-03
               4.8358352352130922E-03
               1.2656854739464486E-03
              -5.3839144297737132E-03
               4.6950593255296628E-03
               1.7622566585633562E-02
              -4.1546371859280994E-03
               6.3122652014116366E-03
               2.8615126012792994E-03
              -6.1660748391434870E-03
               6.4148243404152242E-03
               9.9575152007163360E-03
              -1.1491163225896392E-02
              -4.0042039622667476E-03
              -4.4528466513151042E-03
              -4.5019077349809289E-03
               2.1383816230947901E-03
               5.2647634540218397E-04
              -2.0819876640018647E-02
               1.8616106292557420E-02
               9.2508650239961235E-04
               1.1445567261112512E-02
              -3.5334581393691106E-04
               3.4893547771854805E-03
              -8.8747687754302078E-03
               3.0375924399914442E-04
               1.0096015799313154E-03
               8.7402597176131503E-04
               5.4374981969411472E-03
               3.9649433543972028E-03
              -5.0247067265002309E-03
               7.9069796691980960E-03
              -7.7350508954271103E-03
               2.4532557538383295E-03
              -6.8863190572124137E-03
               5.2431829726782980E-03
               9.4005502045214715E-03
              -1.5355879317415590E-02
               3.9648053422902630E-03
              -2.1551850572807210E-03
               2.1171497523261220E-03
               3.6519173037997477E-03
               2.3329564268297384E-03
               9.7220914607761867E-03
              -4.2874672126510353E-03
              -5.6486922938345160E-03
               4.5202763681894183E-03
               1.6021920022236798E-02
               1.1821893963943318E-02
               2.3208023598708903E-03
               1.5741686582093850E-02
               3.5383183724287818E-03
              -8.8263153006110633E-03
               1.5050953715944784E-03
               7.1806351729466773E-04
               8.0694164075743469E-03
              -2.4713074585855548E-03
               5.6416079999177544E-03
               1.7231283850092225E-04
              -6.7970000068833204E-03
               7.2140818993487364E-05
               7.0375183796364937E-03
               8.7683781539336556E-04
              -1.1641740717904748E-04
               4.4604988424200802E-04
               9.4593421950308048E-03
               1.1386048226887099E-02
              -1.3735393697704329E-02
              -1.2166867784988400E-02
               1.2168689335117274E-03
               3.4742525525579509E-03
               3.2451883670850056E-03
               1.5201575333620777E-03
              -6.5038748176753942E-03
              -2.2880112114795981E-03
               9.0241710489215136E-03
              -3.5160907859376070E-03
              -4.6344348281588980E-03
               4.6863553362174511E-03
               2.3911158225703930E-03
              -1.0845732759734886E-02
              -6.1290578026519096E-03
              -1.3394585799287777E-03
               1.6576426967239600E-03
               6.9927439076530248E-03
               8.8148799498632621E-03
              -1.2199358047181191E-03
              -5.6572287684344784E-05
              -4.2080189616803152E-03
               8.2179721080631995E-03
              -7.1882774432213627E-04
              -7.5376530252629879E-03
               1.3625745994494884E-02
              -1.0364302532537395E-02
               4.3988560142779265E-03
              -1.5083337425484730E-02
               3.7455226546014918E-03
               8.2599058664185911E-03
               5.5357713213974834E-03
              -3.1163828751261608E-03
               3.3212025988975762E-03
              -9.2977665319882441E-03
               1.6780858877073379E-03
              -3.1258336012345310E-04
               5.4293365260199762E-04
               2.9122689921807434E-03
               3.5127894019821404E-03
               7.5827520772044164E-03
               2.8232611019922221E-02
               3.6421784053684843E-03
              -2.5313719638379351E-02
              -3.3379690805734673E-03
               4.2361805022914714E-03
              -7.3891118063665112E-03
               2.6969809583378972E-03
               2.7453672768238111E-03
              -5.5378369603159136E-03
               6.1949168277195704E-04
               1.6996537974217865E-02
              -1.1122581597543259E-02
               4.8416931543990831E-03
               2.3982868845116029E-04
               5.8353778886547107E-03
              -5.0978905368578701E-04
              -7.4593022799553325E-03
               6.7167564272867762E-04
              -1.0733479004160235E-02
               1.3450328411813608E-02
              -1.5534636041141742E-03
              -1.4886226460359689E-02
               3.1920034144873209E-03
              -4.5276032932654448E-03
              -4.8901019654327982E-05
               1.8635576544515015E-03
              -5.7446266623194121E-03
              -4.3058787467798393E-03
               4.5576315979474237E-03
               2.6874719793556637E-03
              -2.5702954185032045E-03
              -7.8567780049469110E-03
               1.1185861508776838E-02
               3.3629696249142340E-04
              -4.3961763117397511E-03
              -2.2753873539427894E-03
               3.5944031909821984E-04
               1.0449393682569624E-02
               9.5682374612051540E-04
              -6.4103934731350540E-03
               1.3082407216840798E-02
              -4.6898096655477164E-03
               1.4064334181964687E-03
               4.5619446161068227E-03
               3.7746973031120259E-04
               2.8888562030118053E-03
              -4.7274338560408420E-03
               1.1356842891166325E-02
               1.0203634840459531E-03
               4.2183039986898241E-03
               1.6139780491051302E-03
              -2.1223725863494989E-03
               4.0776188676670058E-03
               2.4560013606633336E-03
              -1.2236119206444346E-02
               8.1976045799577466E-04
              -3.3276921422446962E-03
              -4.6296030027513195E-03
              -2.4446852904121221E-03
               1.5068891944364803E-02
               9.0718292234997534E-03
              -1.5117424014831123E-03
               7.1591816797109903E-03
               9.2495841299971900E-03
              -8.4443208715628132E-03
              -8.5651675921139259E-03
              -2.1220616136866733E-03
               2.3218069941650741E-03
               3.3943716220153639E-03
               3.6271296903631544E-03
               4.2603884088893065E-03
              -2.8927797035543473E-04
              -7.2451836308558889E-03
              -9.6937926675529050E-06
               2.1898237855623149E-03
               8.8007845064729980E-03
               2.1613896562807581E-03
               1.0998243625129895E-02
              -2.8346287832874671E-04
               5.8139202720123642E-03
               8.0228095694934501E-04
              -1.7933803397344483E-03
              -2.3271668701495342E-04
              -1.8098698063142684E-03
              -9.0292378581869632E-03
               1.1291310681116743E-02
              -7.5219986774450092E-03
              -9.3232364836253745E-03
              -9.3125512317048008E-04
               7.6055037217141941E-03
              -4.8518801550900782E-03
               2.0973276088643845E-02
              -1.1280609362851114E-02
               7.3303211353657185E-03
              -2.1225859316112216E-02
               5.7435206459995006E-03
               2.0840544994565032E-03
               1.3242032856829191E-03
               7.8709159672309837E-03
               2.9130221298879194E-02
               9.1660221313872026E-03
               2.4425024295871272E-02
              -1.4572350088950773E-03
               1.1155927190493430E-02
               1.0645533272320649E-02
              -3.1059594898153577E-03
              -1.0933359764291363E-02
               7.3716919634203787E-03
               8.4745351044269567E-04
               5.6416400870410253E-03
              -6.3295748033629778E-03
              -1.5400199171669144E-02
               9.9042379918434665E-03
               6.4136168346992856E-04
               1.4009546373493779E-02
              -8.2532239075033108E-03
              -4.2523868671658664E-03
              -2.5656229212045133E-03
               7.3989031292174441E-03
               9.0717427451747542E-03
              -1.1462886486395380E-03
               1.3124225522687744E-02
              -5.1747791899464986E-03
              -9.3464043744349379E-04
              -5.2038347441695932E-03
               5.9611888189114136E-03
              -1.1342954625010227E-03
              -4.6487165877949358E-03
              -6.5650306119742043E-03
               1.2718361703706828E-02
              -2.9696328186793737E-03
              -2.1010016273412174E-02
               1.5456700199646824E-02
               1.3376114184350927E-02
              -1.5384394233833119E-02
               5.4656106395106338E-03
              -3.4686368507630336E-03
               7.2941692209231562E-03
               1.4294659493175777E-02
               7.7520083088676237E-03
              -1.3070813498541891E-02
              -2.0955550978004698E-03
              -5.4506837015040107E-03
               5.8059322966789147E-03
               5.9910456142527099E-03
               2.3200197860531941E-04
              -6.0873929211623741E-04
              -6.4156690840634339E-03
               2.8932391980878544E-03
               1.2237990685975879E-03
              -5.8194381351952002E-03
              -4.3401989789397964E-03
               2.6443898338889757E-03
              -6.8858224177596114E-03
              -6.5864188476797113E-03
               5.8570798554244503E-03
              -4.0288280677926048E-03
               9.8803744538584733E-04
               6.8766885742255280E-03
              -7.0171923467467296E-03
               9.1537244192454736E-03
               6.0081181583938395E-03
               2.6381802695320269E-03
               1.7964293534796221E-04
               1.6504852812631574E-03
              -6.1272795135001246E-03
               3.8852221908391594E-03
               6.6546668333939112E-03
              -7.3025993816697374E-03
               1.4208861562215597E-02
              -2.7599304316046863E-03
               4.0591437281100023E-03
              -2.8606469702044200E-03
               3.9863793159328979E-03
               4.6575445074681738E-03
              -1.4728623590210738E-02
               8.1475377083925337E-03
               6.8127994058582390E-03
              -2.0830097325804488E-03
              -1.8718323170996954E-03
               9.7093603500840869E-03
               3.2207859923722871E-03
              -1.2654420369849172E-02
               1.9528985013475629E-02
               4.1641641158986931E-03
              -1.6413982665296332E-02
               2.8381045752501242E-03
              -1.0715833801155724E-02
               3.5041190545946079E-04
               2.5425033553133154E-03
              -3.6060002423156830E-03
               1.2668536914875808E-03
               2.6287683487696031E-03
              -7.1883908375121397E-03
               1.6549213861475906E-05
               2.5976894584611760E-03
               3.1889758433274037E-03
               1.0415524123699687E-02
              -4.4049660236150593E-03
              -6.6776862322793866E-04
               1.8627231536739949E-03
               8.1122688359415995E-03
               4.1040539440594997E-03
              -1.2701719263786323E-02
               3.7736092779633037E-03
              -1.8892354939785746E-03
               2.7578695450600930E-03
              -5.9912346370083881E-04
              -3.0037930979219096E-03
               2.1182517882383789E-03
               7.2289002053154035E-03
              -3.2757441916900221E-05
              -1.9261532141070774E-02
               2.9228120601124405E-03
               7.0056242295545319E-03
               1.1045280486130134E-02
              -1.0281828985459819E-03
               9.9143736678012967E-04
              -4.8074797962615110E-04
              -2.3150630484692843E-02
              -2.4761530856218651E-03
               8.6980636738178997E-03
               1.0477870122609700E-04
              -2.4635010859644114E-05
               1.6618545720821188E-03
              -6.3595383238807474E-03
               6.5681659736091958E-03
               7.0813055607092711E-04
               4.1483237548767095E-03
               8.6431221408461018E-03
               2.0132011995191310E-04
              -1.9570546513175790E-03
              -7.0662335662102452E-03
               8.4594579626302250E-04
              -5.8692787149872633E-03
               1.6978831510011002E-03
               4.5487173410669410E-03
               4.3816879230367308E-03
              -5.8733663981325483E-03
              -5.2268172876807099E-03
              -2.3723620663543637E-03
              -7.6426958733183967E-04
               3.0429399998187670E-03
              -1.8348307299246504E-03
               1.6459706774122733E-03
               5.0497068343869581E-03
              -9.2939061075337495E-04
              -3.2596666891896208E-03
               1.6613470887676951E-03
              -1.4572665771193677E-03
               1.3387870753457121E-02
              -8.8187644643107580E-03
              -4.7374541829436493E-03
              -2.3657694389079124E-03
               2.5392375193539719E-03
               1.7425591131921866E-02
              -3.4701419945774052E-03
              -2.2216495472932984E-04
              -1.0002850782995984E-03
               1.0490908335607996E-02
              -9.3727753438583375E-03
              -2.8228507910154385E-03
              -3.9219252533937562E-03
              -9.9683234747139759E-04
               4.0496991720446237E-03
              -3.9129089508979876E-03
              -1.7547859492449715E-02
              -1.5743454394811136E-02
               1.2245213858869815E-02
               1.4549148979029669E-02
               1.8197603376451353E-03
              -8.3979458466410042E-03
              -5.1257295389275422E-03
              -3.0052511238414267E-03
               8.8466029079360790E-03
               3.3070289728741918E-03
              -1.2984492575945767E-03
              -4.8081028101735644E-03
               1.5096098028457069E-02
               1.4819181398656029E-03
               4.0441661664294025E-03
               3.8738315933024461E-03
               1.2378468334890950E-02
               3.9463261635428824E-03
              -7.0319152160223334E-03
              -6.6716789404970903E-03
              -1.0136246529717674E-02
               1.7818151140013131E-03
              -2.0754873422862080E-03
               2.4454493048857431E-03
              -1.0138071018642920E-03
              -1.4119980290865072E-02
              -1.7448440053006078E-02
              -7.6412273901378617E-03
              -5.5404974999889950E-04
               1.2961177876338497E-02
               1.1810459352610922E-02
               4.8632438402127593E-04
               1.1401379323475982E-02
               7.4510933265753204E-03
              -4.7012354992677337E-03
              -8.6330528837609381E-03
               4.8529297165584746E-03
               8.7965691148039794E-03
              -1.7684910878068979E-03
              -2.7556595610837972E-03
              -3.4418634466596852E-03
               8.7737823207836713E-03
              -2.2811161625517534E-03
              -8.0811323818561643E-03
               1.3692374824125252E-03
               5.0146091632031669E-03
               5.0669143652600909E-03
              -1.1246915026464177E-03
              -1.5137129756002683E-03
              -5.1415345101745316E-03
              -5.0701299303287017E-03
               1.0232143473081880E-02
               2.4579978327400266E-03
              -2.0943537721044650E-04
              -4.5878745195548753E-03
               3.7992224616507621E-04
              -6.8066013631986047E-03
               5.6288155007312166E-03
              -7.5915442597897370E-03
               6.2324734203598447E-03
               6.7634304364356784E-03
               7.1452550438131967E-03
              -8.4364075613864963E-04
              -4.7772452813912294E-04
              -1.1159194633778138E-02
               5.3420441530461719E-03
               2.1995606146743840E-03
               2.5871079818685643E-03
               7.6209616610755666E-03
               9.3513117221179307E-05
               9.3608229118156035E-03
              -1.0012446006665936E-02
               9.9915003581565152E-03
              -3.4657229576014800E-03
              -6.6895022063099630E-03
              -1.6802769659322011E-03
               5.3058441087568018E-03
               2.8986453977719144E-03
              -3.4626352432445340E-04
              -8.4442096893954169E-03
               9.6599406606692959E-03
              -1.5697743502994762E-03
              -6.5137330471828556E-03
               1.0725004597284800E-03
              -1.8928241407956719E-02
              -6.9488210798302552E-03
               7.9724511340288733E-03
               4.1045951477383779E-03
               7.4705216774188293E-03
              -1.7864617433002411E-02
               4.3938452451786156E-03
               1.4551889358014962E-03
               6.2666316947347350E-03
              -7.9085832376090438E-03
               1.4138111872178142E-03
              -5.8202782607663676E-03
              -3.5372513679436147E-03
               1.0198791030593909E-03
              -2.9666816087254447E-03
               7.7348015181211436E-03
               6.2018193229682345E-03
              -1.0668914751516391E-02
              -7.2714511639795443E-03
               3.5130097179325494E-03
              -1.3126961338435277E-04
               1.0928364450291102E-03
               2.3754749274734079E-04
               1.9710301232466719E-03
              -7.4711885441425315E-03
              -5.0137305175747553E-04
               3.3693464919809829E-03
              -5.7368766878979601E-03
              -1.4041505878369183E-03
               7.4437787075401947E-03
              -5.3423160919404775E-03
               1.1284143383946881E-02
              -6.9421468061853925E-03
               4.0946550380750849E-04
               1.1697266213878458E-02
               6.8834120655046486E-04
              -9.9064668364594408E-03
               2.6052833652993085E-03
              -1.6648128456165296E-03
               2.6933689415141755E-03
               3.8296226190046604E-03
              -4.9083810591143417E-03
               3.1431567741702750E-03
               1.2066063258378435E-02
               7.8554169756093924E-03
               2.3363737319201591E-03
               5.9029107389000756E-03
              -2.8064818076713799E-03
               3.6770268158451544E-03
              -6.7656456679969614E-03
               6.8730621403765438E-03
              -5.5302683997725394E-03
              -3.9399069193572439E-03
               6.5415824332983085E-03
               4.4022680897046248E-03
              -9.8935552071175987E-04
              -9.0329124646340402E-04
              -1.7191274558041854E-03
              -1.1310472791810374E-02
               6.9356968145189790E-03
               6.6642374677395779E-03
               1.1022574591323189E-02
              -5.9982252114132927E-04
              -8.1769554136512049E-03
         &END THERMOSTAT_ENERGY
         &RNG_INIT
Wiener process for Thermostat # 1        1 F T T  -1.5601997779545997E+00        4027757407.0        1559045809.0        3403552754.0        1703120254.0         453778739.0        2861026355.0             12345.0             12345.0             12345.0             12345.0             12345.0             12345.0             12345.0             12345.0             12345.0             12345.0             12345.0             12345.0
Wiener process for Thermostat # 2        1 F T T  -4.0112764818655514E-02        3838101567.0        1430396723.0        1556923290.0        2889325561.0         607612135.0        3761282217.0        3692455944.0        1366884236.0        2968912127.0         335948734.0        4161675175.0         475798818.0        3692455944.0        1366884236.0        2968912127.0         335948734.0        4161675175.0         475798818.0
Wiener process for Thermostat # 3        1 F T T  -2.7485675335982579E-01         482699311.0        2506409672.0        1202736307.0        1073196783.0        1141297417.0        2856513754.0        1015873554.0        1310354410.0        2249465273.0         994084013.0        2912484720.0        3876682925.0        1015873554.0        1310354410.0        2249465273.0         994084013.0        2912484720.0        3876682925.0
Wiener process for Thermostat # 4        1 F T T  -9.8957058820594379E-01        3129827523.0        3549124345.0        1353678049.0        1344233659.0        2578763699.0        1106953444.0        2338701263.0        1119171942.0        2570676563.0         317077452.0        3194180850.0         618832124.0        2338701263.0        1119171942.0        2570676563.0         317077452.0        3194180850.0         618832124.0
Wiener process for Thermostat # 5        1 F T T   8.1743834600370391E-01         587879607.0         702838090.0         820286405.0        1159088393.0        1840431053.0        2379049004.0        1597262096.0        3906379055.0        3312112953.0        1016013135.0        4099474108.0         275305423.0        1597262096.0        3906379055.0        3312112953.0        1016013135.0        4099474108.0         275305423.0
Wiener process for Thermostat # 6        1 F T T  -4.6635220676026440E-01        1255338812.0        2941627828.0        2767710176.0        1701464963.0        2824905014.0        2257709657.0          97147054.0        3131372450.0         829345164.0        3691032523.0        3006063034.0        4259826321.0          97147054.0        3131372450.0         829345164.0        3691032523.0        3006063034.0        4259826321.0
Wiener process for Thermostat # 7        1 F T T  -2.7221417990508723E-01        2928923925.0        1475590831.0        3028549759.0        1729569924.0         123262326.0        1965188850.0         796079799.0        2105258207.0         955365076.0        2923159030.0        4116632677.0        3067683584.0         796079799.0        2105258207.0         955365076.0        2923159030.0        4116632677.0        3067683584.0
Wiener process for Thermostat # 8        1 F T T  -1.3371509559371584E+00        3293786404.0        2324351260.0        4224364702.0        1341956089.0         912321799.0        2697559406.0        3281794178.0        2616230133.0        1457051261.0        2762791137.0        2480527362.0        2282316169.0        3281794178.0        2616230133.0        1457051261.0        2762791137.0        2480527362.0        2282316169.0
Wiener process for Thermostat # 9        1 F T T  -8.7225140957356684E-01         657961678.0        1513147170.0        2219186603.0        4111646695.0         616753226.0        2747528653.0        3777646647.0        1837464056.0        4204654757.0         664239048.0        4190510072.0        2959195122.0        3777646647.0        1837464056.0        4204654757.0         664239048.0        4190510072.0        2959195122.0
Wiener process for Thermostat # 10       1 F T T  -6.2889449580622436E-01          96284293.0        2446379684.0        3801610533.0        2961863039.0        1877110468.0         129512113.0        4215590817.0        3862461878.0        1087200967.0        1544910132.0         936383720.0        1611370123.0        4215590817.0        3862461878.0        1087200967.0        1544910132.0         936383720.0        1611370123.0
Wiener process for Thermostat # 11       1 F T T   5.7191327297384098E-01         909895394.0        1862319182.0        2400367466.0        1201802882.0        2818881371.0          83822050.0        1683636369.0         362165168.0         814316280.0         869382050.0         980203903.0        2062101717.0        1683636369.0         362165168.0         814316280.0         869382050.0         980203903.0        2062101717.0
Wiener process for Thermostat # 12       1 F T T  -2.0098512161557830E-01        4281566709.0        2729512869.0         275332126.0         437149450.0        1041778670.0        1778805263.0         272317999.0         166758548.0         310112982.0         201045826.0        1680231254.0         118290799.0         272317999.0         166758548.0         310112982.0         201045826.0        1680231254.0         118290799.0
Wiener process for Thermostat # 13       1 F T T   9.4560796151122029E-01        3557498645.0        2583014714.0        2425630516.0         920535172.0        3770643442.0         978988578.0        2245755202.0        1652682525.0        2865544364.0         721509566.0         209733568.0         592362218.0        2245755202.0        1652682525.0        2865544364.0         721509566.0         209733568.0         592362218.0