 # Version information for this restart file 
 # current date 2022-11-29 20:39:35.982
 # current working dir /scratch/work/courses/CHEM-GA-2671-2022fa/rmo302/comp-lab-class/Week12/Runs/Proton
 # Program compiled at                              Sat Dec 12 18:27:15 EST 2020
 # Program compiled on                                         cs001.nyu.cluster
 # Program compiled for                                                nyu-intel
 # Source code revision number                                       git:8c64c6e
 &GLOBAL
   PRINT_LEVEL  LOW
   PROJECT_NAME proton_amid_1ps_every0.5fs
   RUN_TYPE  MD
   WALLTIME 21600
 &END GLOBAL
 &MOTION
   &GEO_OPT
     OPTIMIZER  BFGS
     MAX_ITER  100
     MAX_DR     3.0000000000000001E-03
     &BFGS
     &END BFGS
   &END GEO_OPT
   &MD
     ENSEMBLE  NVT
     STEPS  2000
     TIMESTEP     4.9999999999999994E-01
     STEP_START_VAL  1997
     TIME_START_VAL     9.9849999999998249E+02
     ECONS_START_VAL    -1.1027144996975105E+03
     TEMPERATURE     3.0000000000000000E+02
     &THERMOSTAT
       TYPE  GLE
       REGION  MASSIVE
       &GLE
         NDIM  5
         A_SCALE     1.0000000000000000E+00
         A_LIST     1.8595758612559999E+02    2.7263853498399998E-01    1.1526100454610001E+01   -3.6414578262600003E+01 \
             2.3173375816020001E+02
         A_LIST    -2.7809524712060002E-01    8.5951591808710006E-05    7.2189048017650004E-01   -1.9844539343859999E-01 \
             4.2409257583420001E-01
         A_LIST    -1.4825808131210000E+01   -7.2189048017650004E-01    1.3590902121280000E+00    5.1498896280349999E+00 \
            -9.9949268450990001E+00
         A_LIST    -1.0372189126880000E+01    1.9844539343859999E-01   -5.1498896280349999E+00    2.6661910891169999E+01 \
             1.1507715495310000E+01
         A_LIST     2.1801346360420001E+02   -4.2409257583420001E-01    9.9949268450990001E+00   -1.1507715495310000E+01 \
             3.0958394565589998E+02
         &THERMOSTAT_ENERGY
              -1.1041000112546645E-03
               9.6916070211274690E-04
              -5.3694532885947555E-03
               5.6506859071621353E-03
              -1.2455802522661711E-02
              -7.5805496699901946E-04
               1.8432605038063530E-03
              -5.5055290631584129E-03
               1.4308974605767770E-02
               2.9796902021450287E-03
               6.4486890378255357E-03
              -1.8297322060665340E-03
              -8.4811703864016447E-03
               8.1372902887170398E-04
               2.4092045918380606E-03
              -1.0562918158523707E-02
               5.5149472566951019E-04
              -5.1314955834363945E-03
              -1.8868857494902134E-04
               3.8362025252626931E-04
              -2.1249441671806184E-03
               1.1079134677599281E-02
              -1.3306181839256732E-02
              -4.3987097059043348E-03
               4.7831393681001099E-03
              -8.2770809965706498E-03
               6.6511188071312951E-04
               4.0470245999645578E-03
               1.0131005946341812E-02
               4.0303825131057418E-03
               2.6218251621631474E-03
              -1.5260768676785144E-03
              -7.0030944628379679E-04
               9.1475117212581579E-03
              -8.9166345820751603E-03
               1.0727487196540814E-02
               2.2544723007305034E-03
              -6.3588400555448709E-03
              -7.3507317706579002E-04
               2.8071344826477006E-04
               8.1232932166415382E-03
              -1.2665046482411537E-02
               1.1534566866816589E-02
               4.1578895651576955E-03
               8.3171541574181837E-04
              -1.6712857540638563E-03
              -8.2114183597622372E-03
               5.7516451430417335E-03
              -2.1728003869524734E-03
               1.7439432949658139E-03
              -3.5025372142697977E-03
              -7.5175413092875740E-04
              -2.2411824757731878E-03
               1.9140584272684174E-03
              -9.3501523348228557E-03
               9.7707975229005053E-03
              -3.3009346893712438E-03
              -2.5948682250647144E-03
               3.3629740217610005E-03
               1.1933696137550929E-03
              -5.3114156429618737E-03
               5.2902155234999994E-03
               1.7786802542338595E-02
              -3.9239460478795781E-03
               6.7074518286428745E-03
               2.8753142435502589E-03
              -6.3275147988194527E-03
               6.2438070737096986E-03
               9.9236074396420737E-03
              -1.1262367001953143E-02
              -3.9495655317170475E-03
              -4.5731118624515437E-03
              -4.2345993435246639E-03
               1.3069852663426008E-03
               5.5396766677370010E-04
              -2.0653116217824650E-02
               1.8644081948345124E-02
               9.4664241230248527E-04
               1.0892952457330903E-02
              -3.2537508045304649E-04
               3.6046979299570450E-03
              -8.4175209360037445E-03
               1.9262731061056533E-04
               9.8272812948240135E-04
               9.3037926716633013E-04
               5.6535317869440991E-03
               3.9661417736806918E-03
              -5.7577095433355759E-03
               8.2497693083144162E-03
              -7.6648937325877672E-03
               2.1131770782577748E-03
              -6.9384248812929556E-03
               5.1850493958774556E-03
               9.5132628528008523E-03
              -1.5264532578430832E-02
               3.7792762289699409E-03
              -2.2833317291567844E-03
               1.4196505181823451E-03
               4.0326490032140411E-03
               2.3823014754876717E-03
               9.6853714329803893E-03
              -4.1549304132485138E-03
              -4.9424878566306412E-03
               4.6331116300005575E-03
               1.6593088544577667E-02
               1.1920107349473179E-02
               2.0234339142639634E-03
               1.5772788846889645E-02
               3.5294991318497193E-03
              -9.0041697664931860E-03
               1.3301418609324514E-03
               1.7705354920348393E-03
               7.9343602339505288E-03
              -2.5271545840790635E-03
               5.8725109150772215E-03
               5.6205892178561533E-05
              -6.8395641106696143E-03
               1.3150970567237980E-04
               7.0616800969797262E-03
               1.1389878780991266E-03
              -1.2633506699197884E-03
               6.7268988827139608E-04
               9.4055797091934651E-03
               1.1467475905495303E-02
              -1.3735636395276361E-02
              -1.1935464607040496E-02
               1.3548977475920365E-03
               3.7309050679307748E-03
               2.8972271680771642E-03
               1.5195183073718750E-03
              -6.3239838773357492E-03
              -1.9875219699425836E-03
               9.0149758418887668E-03
              -4.8023964253248921E-03
              -4.5614422054100368E-03
               4.4269692729242416E-03
               2.1224221128912425E-03
              -1.1549676634248017E-02
              -6.3359850536122879E-03
              -1.3605991501957372E-03
               1.4981099929763098E-03
               6.7034867363601914E-03
               9.5154238121817718E-03
              -1.5198351835219387E-03
              -8.1148473703532214E-05
              -4.2811125945770179E-03
               7.3420256587786812E-03
              -7.4040367771689806E-04
              -7.5352198309766895E-03
               1.3421433379654939E-02
              -9.6516107992824160E-03
               4.3860857330269825E-03
              -1.5258335341912279E-02
               3.6457570366073555E-03
               8.3541216204525114E-03
               5.4321349147070522E-03
              -3.3693089835509162E-03
               2.8253846017422032E-03
              -9.2798844960972540E-03
               1.7949899209522371E-03
              -1.9366314480601910E-04
               7.8703668302529070E-04
               3.4121294016926261E-03
               3.1621974268101812E-03
               8.2903795277414552E-03
               2.7870137025270712E-02
               3.3639995817371735E-03
              -2.5216356434256765E-02
              -2.9274522445878761E-03
               4.2824807091307072E-03
              -7.7253557375290887E-03
               2.6827549591592176E-03
               2.8263091849983759E-03
              -5.7557900385170353E-03
               3.1710144155109189E-05
               1.6780599131741954E-02
              -1.1408629893679658E-02
               5.2604531970527344E-03
               1.9355084593439357E-04
               6.3196938505369737E-03
              -1.1628665514199295E-03
              -7.6381161299920097E-03
               8.1529359276295149E-04
              -1.1286337345264319E-02
               1.3483599403764189E-02
              -2.0622769984803939E-03
              -1.4662628452808073E-02
               4.1449696818065609E-03
              -4.0552602373857428E-03
              -2.0618461641861135E-04
               1.8949993592573455E-03
              -5.1695705433774334E-03
              -5.1521536192394683E-03
               4.3717467779394899E-03
               2.8309057369550563E-03
              -2.6493610172329592E-03
              -7.7832262430097806E-03
               1.2529962426682292E-02
               3.7615979936209782E-04
              -4.6164722405189797E-03
              -2.0285198803259123E-03
               4.3020643423470519E-04
               1.0553659717279685E-02
               1.0644444699606887E-03
              -7.3545280572577757E-03
               1.2661155603833912E-02
              -5.1105876134770441E-03
               1.2365711804534856E-03
               4.6116945752422726E-03
               3.7491737466044828E-04
               2.8979409524757071E-03
              -4.8940182697598767E-03
               1.1279441156145218E-02
               8.7101131913120441E-04
               4.1950960300060182E-03
               1.6125775927689620E-03
              -2.0137166777447471E-03
               4.0460676479936331E-03
               2.1925832939746334E-03
              -1.2287291136525635E-02
               1.6535468370729913E-03
              -2.9951969553097162E-03
              -5.1366882476914563E-03
              -2.4379794799672351E-03
               1.5115116945241064E-02
               9.0861274661596485E-03
              -1.6233907470873303E-03
               7.5039515657881750E-03
               9.2274385278625845E-03
              -7.8802129607742910E-03
              -8.6496516856075616E-03
              -2.2209648111735656E-03
               1.5178214759043965E-03
               3.5364233837844165E-03
               3.7376732214098401E-03
               4.6379503906515147E-03
               5.5487526662391655E-05
              -7.2043200281884708E-03
              -1.0031979770346200E-04
               2.1548620573919089E-03
               7.8790784353970217E-03
               2.3711476616720024E-03
               1.1080980882887568E-02
              -2.7568571865310395E-04
               5.3812840616107322E-03
               3.2355992769078011E-04
              -5.3099895592073946E-04
              -7.3642023529615577E-05
              -1.4572785128572482E-03
              -9.2928305583587500E-03
               1.1257315419704499E-02
              -7.5368108425829354E-03
              -8.8289535457262269E-03
              -1.0333996674636507E-03
               7.8592386023281242E-03
              -4.9862416590851430E-03
               2.1008733721356219E-02
              -1.1187782902589916E-02
               7.7024445242232769E-03
              -2.1185212440539409E-02
               5.3858418158855993E-03
               2.1165537031153925E-03
               1.2957536300592927E-03
               7.8288863698441468E-03
               2.9082920977530693E-02
               8.9469323277563354E-03
               2.4560310798410541E-02
              -2.8496440506475958E-04
               1.1090076140650438E-02
               1.0567451941752345E-02
              -2.7311567752683181E-03
              -1.0714430965719845E-02
               6.6326890719376978E-03
               5.6136302004666620E-04
               5.6747888102739591E-03
              -6.2731777511143109E-03
              -1.5496177935125661E-02
               9.6098519133050158E-03
               8.1171619692915970E-04
               1.4110264637295436E-02
              -8.1912754147097627E-03
              -4.6150390731385833E-03
              -2.2705076965900146E-03
               7.7880416969985941E-03
               9.2694858164262366E-03
              -1.2689955291105314E-03
               1.3015287394114736E-02
              -5.2385946455911934E-03
              -9.8721357897880828E-04
              -5.2228372193841186E-03
               4.7652540478951557E-03
              -9.5132135736784103E-04
              -4.8579877008706951E-03
              -6.5876196555270383E-03
               1.2737462864877067E-02
              -2.7690357743086294E-03
              -2.0108398146584366E-02
               1.5327448270835761E-02
               1.3230100514592042E-02
              -1.5398287175283553E-02
               4.5560277849371004E-03
              -3.2007575492169851E-03
               7.4091769745842813E-03
               1.4315704362752863E-02
               7.4309736142165062E-03
              -1.3063025610240718E-02
              -3.6277162912468543E-03
              -5.4994217023614546E-03
               5.8120316914725707E-03
               6.1026349926291837E-03
               3.0528658544487790E-04
              -7.7551387089005064E-04
              -6.5935598550381338E-03
               2.9629390908263785E-03
               1.6259749749920147E-03
              -5.7393995618053115E-03
              -4.2763214505401820E-03
               2.6764893409140732E-03
              -6.9770429627126112E-03
              -6.5688859087184191E-03
               5.7702552251153640E-03
              -3.8217876246622170E-03
               8.8623880315690439E-04
               7.0071690926968543E-03
              -6.9011346235498617E-03
               9.9718385658042995E-03
               5.8402691829294853E-03
               2.2455195778645007E-03
               2.5124926124113088E-04
               1.3219546961460201E-03
              -7.1628566824731036E-03
               3.3356224263764510E-03
               6.6964798506661278E-03
              -7.3967946258671974E-03
               1.4227291084828085E-02
              -2.7871374156018011E-03
               4.0059592203510975E-03
              -3.6082951259129850E-03
               3.9784619550340839E-03
               4.3664236011561833E-03
              -1.4556316893772720E-02
               8.8526114455493993E-03
               6.7805013064374227E-03
              -2.0663771552401054E-03
              -2.0593040250998715E-03
               9.3048691472850994E-03
               3.4040660557632888E-03
              -1.2664272084275778E-02
               1.9524368745610865E-02
               3.8573934263757830E-03
              -1.6364956432206000E-02
               2.9187190466476989E-03
              -1.0759827490649217E-02
              -6.5409751484313099E-04
               2.5607656200668412E-03
              -3.6797313396575212E-03
               1.3794379646077486E-03
               2.5474561931338384E-03
              -7.0346138321133404E-03
              -1.8300981326158257E-04
               2.6009566868312522E-03
               2.4828720545938881E-03
               1.0531315293314011E-02
              -4.8024357870885964E-03
              -8.2721676479560909E-04
               1.9818251493149541E-03
               8.1203942070710491E-03
               4.1190337362702360E-03
              -1.2482566296223997E-02
               3.8323482006435263E-03
              -2.1355315829386079E-03
               3.2011030375799832E-03
              -1.1261998423521074E-03
              -2.1594315617367590E-03
               1.9768110177330843E-03
               6.5317684211513250E-03
              -3.0584125812877563E-04
              -1.9263078314297938E-02
               2.6246707702227883E-03
               6.8504429898072882E-03
               1.0705519422322975E-02
              -6.9686962893127091E-04
               1.3613967822218812E-03
              -4.9273169836645629E-04
              -2.2992815086142447E-02
              -2.2853202642772684E-03
               8.8027652570814435E-03
              -2.5609905260779375E-06
              -2.5466980469883107E-04
               1.6657104838400686E-03
              -6.4769671509517426E-03
               6.3833016937766612E-03
               8.8978901221206750E-04
               4.1439505712396255E-03
               8.6615326807600208E-03
              -7.8827410319374895E-05
              -2.6973791455710801E-03
              -7.2111627701457364E-03
               9.4877348867551930E-04
              -5.9516956629692402E-03
               1.8480193293896891E-03
               4.0959473265828510E-03
               4.5474341263778729E-03
              -5.9213469421436384E-03
              -5.3737513614970055E-03
              -2.4031646256737972E-03
              -1.0915430910989233E-03
               2.8030622861190953E-03
              -2.1238238183999697E-03
               1.6722007796158745E-03
               5.0555250274147458E-03
              -7.6090118362285078E-04
              -2.7371641301464950E-03
               4.6639059089362343E-04
              -1.5334621800517352E-03
               1.3245436514184934E-02
              -8.1237669516531635E-03
              -5.3594674526702135E-03
              -2.1104986167843950E-03
               2.5473752616421881E-03
               1.7449632099845066E-02
              -3.1639865644923241E-03
              -9.3612707080215421E-04
              -9.7433491908046385E-04
               9.6453229956508183E-03
              -9.3114645679708060E-03
              -2.8499155682582956E-03
              -3.7346949971584125E-03
              -4.5156418453670092E-04
               3.9868706500668545E-03
              -4.4294002678279777E-03
              -1.7646908566481146E-02
              -1.4969627983227441E-02
               1.2243831694540094E-02
               1.4433478095696435E-02
              -4.0918544955163621E-04
              -8.0939920474972539E-03
              -5.0335296181379377E-03
              -3.1588102925839377E-03
               9.3099511682403092E-03
               3.0573222078106900E-03
              -1.1883933023329909E-03
              -4.7768927834956915E-03
               1.5095470286582799E-02
               1.5161683644722350E-03
               4.0295617212565069E-03
               3.4222893346416389E-03
               1.2427663280174663E-02
               4.4034529858629021E-03
              -7.0349310181847475E-03
              -6.2048863228763591E-03
              -1.0210426164615026E-02
               1.8180660282110868E-03
              -3.0363359964928260E-03
               2.6126218224091428E-03
              -1.0121786223283818E-03
              -1.4019357682409334E-02
              -1.6465256049487929E-02
              -7.9243574214451582E-03
              -7.7202390084874092E-04
               1.2930116949541881E-02
               1.2233007638708885E-02
              -3.2311709522393674E-06
               1.1445558466861136E-02
               7.5512819646424345E-03
              -5.1066184688012013E-03
              -8.3830664660673199E-03
               4.6660033355288644E-03
               8.9958899479418205E-03
              -1.7266937707231366E-03
              -2.8725545761697758E-03
              -3.2534002627297855E-03
               9.9713267971326368E-03
              -2.2665050223505201E-03
              -8.2103777793783722E-03
               1.1346469625579943E-03
               5.3472255528600942E-03
               4.9619811953487778E-03
              -1.6054002644913267E-03
              -1.9298985156735011E-03
              -5.2815938698632650E-03
              -6.1537935708982925E-03
               1.0968372611171081E-02
               2.5459844711069749E-03
               3.3363227236491138E-04
              -4.6523153915788576E-03
               7.3308129600396451E-05
              -7.1193809154728440E-03
               5.7785873710809489E-03
              -8.1584827179631732E-03
               6.5186328058862309E-03
               7.2677445901978841E-03
               7.0773574789228244E-03
              -1.0428646712156574E-03
              -1.6710611661721326E-04
              -1.1139856503772690E-02
               4.9233827375075190E-03
               1.9650188691036964E-03
               2.6624742987916695E-03
               7.6923321692362627E-03
              -1.0273272131078939E-03
               9.2560991614620176E-03
              -9.7762387734401483E-03
               9.4470221731229407E-03
              -3.3586839205420678E-03
              -6.7238822829103128E-03
              -1.6284725112470980E-03
               5.3339596834115731E-03
               2.7322374317152887E-03
              -4.8231347939567463E-04
              -8.3035843308619378E-03
               8.9482747755369740E-03
              -1.3140867457943149E-03
              -6.5567808218626837E-03
               1.1757936484492288E-03
              -1.8799742427409671E-02
              -6.9448364300808089E-03
               8.2667312248174713E-03
               4.1124370938984030E-03
               7.4289100816700114E-03
              -1.7484426968288551E-02
               4.7939533841841958E-03
               1.5314383951325439E-03
               6.3198072890971379E-03
              -6.7511212567773274E-03
               1.3006730905976841E-03
              -6.1864203288166759E-03
              -3.4872989428986543E-03
              -5.3690727669224864E-04
              -2.8090121567481223E-03
               8.0080642934255448E-03
               6.1905176795761536E-03
              -1.0709238369344468E-02
              -7.6005090029628948E-03
               3.1514550480485444E-03
               4.4681680590458233E-05
               1.3357440370871728E-03
               2.4688312568850977E-04
               1.8631065927318881E-03
              -7.0840538235781864E-03
              -7.8603154182032165E-04
               3.4020286243992516E-03
              -5.8674967471485451E-03
              -1.4397009292659141E-03
               7.3399433580980007E-03
              -5.1655253856484618E-03
               1.1663991877940885E-02
              -6.5909483845540363E-03
               2.6572003939264593E-04
               1.1714715586843935E-02
               1.0576599898180048E-03
              -1.0189721138195917E-02
               2.5037981631647909E-03
              -1.5558557207356527E-03
               2.7168677467166763E-03
               3.7287960586873639E-03
              -4.9155358752254324E-03
               3.1798776556562856E-03
               1.1965893833777967E-02
               7.8095292472959970E-03
               2.0476767571527446E-03
               5.9710847015527844E-03
              -2.7979711109337602E-03
               4.4026886600873824E-03
              -6.5921979198483704E-03
               6.4324006184195721E-03
              -5.5699351880616485E-03
              -4.2149867170307807E-03
               6.5465421630928906E-03
               4.4478978857312272E-03
              -1.0526272429469343E-03
              -8.8109909768183299E-04
              -2.5005091139906109E-03
              -1.1228746992639259E-02
               6.8991010112806860E-03
               5.5931701618268772E-03
               1.1037805400460250E-02
              -4.5643933519053185E-04
              -7.9502988204658669E-03
         &END THERMOSTAT_ENERGY
         &RNG_INIT
Wiener process for Thermostat # 1        1 F T T   3.7280401166127353E-01        2396824340.0        1285798124.0        1970812289.0        4262378425.0        2500496477.0        3105761546.0             12345.0             12345.0             12345.0             12345.0             12345.0             12345.0             12345.0             12345.0             12345.0             12345.0             12345.0             12345.0
Wiener process for Thermostat # 2        1 F T T  -2.8031459711754392E-01        1517340215.0         764337745.0        1777988352.0        1272471177.0        3093987526.0        2495380513.0        3692455944.0        1366884236.0        2968912127.0         335948734.0        4161675175.0         475798818.0        3692455944.0        1366884236.0        2968912127.0         335948734.0        4161675175.0         475798818.0
Wiener process for Thermostat # 3        1 F T T   7.0414863813957229E-01        1874984675.0        3540139467.0        3102430019.0        1608426380.0         643336117.0        1230365417.0        1015873554.0        1310354410.0        2249465273.0         994084013.0        2912484720.0        3876682925.0        1015873554.0        1310354410.0        2249465273.0         994084013.0        2912484720.0        3876682925.0
Wiener process for Thermostat # 4        1 F T T   2.2606224243119818E-01        3416187057.0        1637601412.0         393440280.0        2948182120.0        3407482107.0        2343296956.0        2338701263.0        1119171942.0        2570676563.0         317077452.0        3194180850.0         618832124.0        2338701263.0        1119171942.0        2570676563.0         317077452.0        3194180850.0         618832124.0
Wiener process for Thermostat # 5        1 F T T  -1.0267294306732384E+00         315072143.0        4137263975.0        4196656129.0        1282237791.0        3639735469.0        1937530485.0        1597262096.0        3906379055.0        3312112953.0        1016013135.0        4099474108.0         275305423.0        1597262096.0        3906379055.0        3312112953.0        1016013135.0        4099474108.0         275305423.0
Wiener process for Thermostat # 6        1 F T T   9.2624835653208748E-01        3222219212.0        3105331301.0        2094058484.0        2511776071.0        3719186732.0        3505559269.0          97147054.0        3131372450.0         829345164.0        3691032523.0        3006063034.0        4259826321.0          97147054.0        3131372450.0         829345164.0        3691032523.0        3006063034.0        4259826321.0
Wiener process for Thermostat # 7        1 F T T  -4.6721006089689310E-01        2921304001.0        3534845789.0         764942181.0        2980414860.0        2807768180.0         274774080.0         796079799.0        2105258207.0         955365076.0        2923159030.0        4116632677.0        3067683584.0         796079799.0        2105258207.0         955365076.0        2923159030.0        4116632677.0        3067683584.0
Wiener process for Thermostat # 8        1 F T T   4.8809173354813140E-01        3327178806.0        3682317356.0        2663069382.0         319044460.0        3975670735.0         562702070.0        3281794178.0        2616230133.0        1457051261.0        2762791137.0        2480527362.0        2282316169.0        3281794178.0        2616230133.0        1457051261.0        2762791137.0        2480527362.0        2282316169.0
Wiener process for Thermostat # 9        1 F T T  -8.1805399140306756E-01         433221438.0         349071730.0        2033385903.0        2639944804.0        3988392127.0        3801627598.0        3777646647.0        1837464056.0        4204654757.0         664239048.0        4190510072.0        2959195122.0        3777646647.0        1837464056.0        4204654757.0         664239048.0        4190510072.0        2959195122.0
Wiener process for Thermostat # 10       1 F T T  -2.7062828385550008E-01        2290601073.0        1666814614.0        3289919364.0        2930088785.0        1500929831.0        1860303943.0        4215590817.0        3862461878.0        1087200967.0        1544910132.0         936383720.0        1611370123.0        4215590817.0        3862461878.0        1087200967.0        1544910132.0         936383720.0        1611370123.0
Wiener process for Thermostat # 11       1 F T T   6.8652417552969780E-01        2151060734.0         580174056.0        1748210725.0         399674445.0        1879492130.0        2741776977.0        1683636369.0         362165168.0         814316280.0         869382050.0         980203903.0        2062101717.0        1683636369.0         362165168.0         814316280.0         869382050.0         980203903.0        2062101717.0
Wiener process for Thermostat # 12       1 F T T   1.2985463821691814E+00        3478492904.0        1830493925.0          17364685.0        2058676739.0        2676153401.0        4087350495.0         272317999.0         166758548.0         310112982.0         201045826.0        1680231254.0         118290799.0         272317999.0         166758548.0         310112982.0         201045826.0        1680231254.0         118290799.0
Wiener process for Thermostat # 13       1 F T T   2.0061703114922356E+00        2097018817.0        1300727704.0         367347443.0         582130443.0        2824054692.0        3111690587.0        2245755202.0        1652682525.0        2865544364.0         721509566.0         209733568.0         592362218.0        2245755202.0        1652682525.0        2865544364.0         721509566.0         209733568.0         592362218.0