 # Version information for this restart file 
 # current date 2022-11-29 16:55:22.323
 # current working dir /scratch/work/courses/CHEM-GA-2671-2022fa/rmo302/comp-lab-class/Week12/Runs/Proton
 # Program compiled at                              Sat Dec 12 18:27:15 EST 2020
 # Program compiled on                                         cs001.nyu.cluster
 # Program compiled for                                                nyu-intel
 # Source code revision number                                       git:8c64c6e
 &GLOBAL
   PRINT_LEVEL  LOW
   PROJECT_NAME proton_amid_1ps_every0.5fs
   RUN_TYPE  MD
   WALLTIME 21600
 &END GLOBAL
 &MOTION
   &GEO_OPT
     OPTIMIZER  BFGS
     MAX_ITER  100
     MAX_DR     3.0000000000000001E-03
     &BFGS
     &END BFGS
   &END GEO_OPT
   &MD
     ENSEMBLE  NVT
     STEPS  2000
     TIMESTEP     4.9999999999999994E-01
     STEP_START_VAL  500
     TIME_START_VAL     2.4999999999999795E+02
     ECONS_START_VAL    -1.1027144996975105E+03
     TEMPERATURE     3.0000000000000000E+02
     &THERMOSTAT
       TYPE  GLE
       REGION  MASSIVE
       &GLE
         NDIM  5
         A_SCALE     1.0000000000000000E+00
         A_LIST     1.8595758612559999E+02    2.7263853498399998E-01    1.1526100454610001E+01   -3.6414578262600003E+01 \
             2.3173375816020001E+02
         A_LIST    -2.7809524712060002E-01    8.5951591808710006E-05    7.2189048017650004E-01   -1.9844539343859999E-01 \
             4.2409257583420001E-01
         A_LIST    -1.4825808131210000E+01   -7.2189048017650004E-01    1.3590902121280000E+00    5.1498896280349999E+00 \
            -9.9949268450990001E+00
         A_LIST    -1.0372189126880000E+01    1.9844539343859999E-01   -5.1498896280349999E+00    2.6661910891169999E+01 \
             1.1507715495310000E+01
         A_LIST     2.1801346360420001E+02   -4.2409257583420001E-01    9.9949268450990001E+00   -1.1507715495310000E+01 \
             3.0958394565589998E+02
         &THERMOSTAT_ENERGY
              -2.5228426785880408E-03
              -1.5622469471466621E-03
               1.9362347554259925E-04
               8.7365356875438794E-04
              -6.7085575780285065E-03
               1.2691445245622164E-03
              -1.6889371314653988E-03
              -3.4158320424718127E-03
               7.8550305326194891E-03
               2.6308211795221070E-03
               6.2451449293377927E-03
              -3.1408908302264296E-03
               2.1529113479813559E-03
              -1.3966985367821561E-03
              -8.4132757554517869E-04
              -3.1583970412767939E-03
               1.0251227594010857E-03
              -2.8188206556033508E-03
               4.2306512968198068E-03
               2.7804817655580039E-04
               7.6155762392812396E-04
              -3.3464467380535704E-04
              -2.9931160891833626E-03
               3.4641421525201358E-03
              -5.7725559373817987E-04
              -2.6023760095073975E-03
              -2.4532252210965242E-03
               7.2355232460160337E-03
               3.9677938216235720E-04
               4.0278088231239121E-04
              -3.7551545886495580E-03
               1.6488338828920528E-03
               5.4561693373615348E-03
               2.4963703957154708E-04
              -2.3310437181840058E-03
               4.8627594578201667E-03
              -1.1886436492167941E-03
               2.8112005572443038E-04
               1.0945586567845643E-03
              -5.2734879812842139E-03
               3.2792564291406648E-03
              -3.1710493865028943E-05
               3.2561888851301963E-03
               1.7581340967828107E-03
              -7.4900122566178996E-03
               1.7149910048522153E-03
               2.2501910204998085E-04
               2.4430036347733962E-03
              -6.6517711179764367E-03
               1.7757092928284226E-03
               2.1590700334238994E-04
              -6.0821756717626260E-03
               2.3024465791746467E-03
               3.4105245197157802E-03
              -4.4995134326461942E-03
               2.9581623025947356E-03
              -7.6662396375549199E-04
              -2.3139202370177220E-03
               1.4772327479446496E-03
               5.0670516822712780E-03
              -2.5526819432298399E-03
               3.0943402239131234E-03
               7.3950915961638114E-03
               2.5306614232658972E-03
              -3.0470002961867741E-03
              -8.0859562649769937E-04
              -4.3590793661200345E-03
               8.7445129841984195E-04
               6.7352546690240007E-03
               2.7936215708272696E-03
               1.7666161896856512E-03
              -2.0563803018426143E-03
              -2.3645655411796795E-03
               4.8148725213812066E-04
               1.9772849169735389E-03
              -8.5768295785994177E-03
               7.8723983595295859E-03
               3.4308501439329836E-03
               8.0539738084170823E-03
               4.2110380316175177E-04
              -7.2517314148871454E-03
              -2.5157801905678094E-03
               1.7120786488382719E-03
              -1.8361858372519051E-03
               2.4707749986740924E-03
               7.6274521676038796E-04
              -5.2713732635683297E-03
              -8.0537355413971834E-04
               1.8890188713596844E-03
              -3.1057619511080546E-03
               3.8746514841532052E-03
              -4.1334899141429243E-03
               3.1046267188705665E-03
              -2.1882954452400599E-03
              -9.7047009659378351E-03
               9.8556011568715369E-03
               1.9153587768330111E-03
               5.3024882666685539E-04
               3.5321777237067422E-03
               1.9578681776486998E-03
              -8.1472632235960970E-04
              -1.8606075459799618E-03
               6.4378162653396648E-04
               1.5599116508755404E-02
               5.3716181894378967E-03
               1.0443329553759654E-02
               5.8411679243691519E-03
               1.0575075710961859E-02
               4.2163615109887366E-03
              -2.3156597868553086E-03
               1.6266102953421812E-03
              -1.1765519992425887E-03
               2.2927385011823221E-03
               2.1587492308571166E-03
               2.1196897727761492E-03
               3.7843641463248994E-03
              -7.4981702970800595E-03
               1.6454504754386894E-03
              -2.8742914084989154E-03
              -8.6036450717790185E-07
              -3.1379506026909822E-03
               3.6987078110052268E-03
               5.8145076546038607E-03
               8.6107690487350220E-03
              -5.4131294916530976E-03
              -4.4460707675573778E-03
              -3.9535946021765258E-04
               8.0260692434959511E-04
               2.5279378543779127E-03
               2.8677459120866611E-03
              -5.6998395300863185E-03
               3.2537549708052428E-03
              -1.4059909492839336E-03
              -7.9122419406701830E-04
              -2.3467608708521120E-03
               1.9099274440071074E-03
              -2.9617425826212076E-03
               1.6746889564768974E-04
               1.1922054884426002E-03
              -6.1802037387534807E-03
               6.5269688391132747E-03
               4.6268647893042414E-03
               1.4551060044608265E-03
               1.5396360471111310E-03
              -5.2896938695178837E-03
              -3.3493838921981067E-03
               4.9536872026035763E-03
              -4.8020538910479678E-03
              -3.5644186093185785E-04
               1.0322141669019265E-02
              -1.0315482049749109E-03
               1.4068159119687710E-05
               2.1372337326862664E-03
               1.2438987783251247E-04
               5.4706071143414145E-04
              -3.4340499240514111E-03
               9.2823822942922221E-04
              -4.2891575984165178E-03
              -2.4781415846895144E-03
               2.7147967619400781E-03
              -4.6203480045541121E-03
               6.6462513320809317E-04
              -7.2929792802635038E-04
              -8.6375443648322977E-04
               2.7431952285739639E-03
               6.5256920237387597E-03
              -4.4924955620212091E-04
              -6.0902198167510462E-03
              -4.1771425666706687E-03
               2.6335422277549321E-03
               1.3747973956346805E-03
               1.9352929437102301E-03
               9.0224355278509347E-04
              -5.6551874556711951E-03
               2.6968049025689628E-03
               1.6809699499548837E-03
               1.3748571696032153E-03
              -3.0982864096930729E-03
               2.1428991472593121E-03
               7.6637314130143328E-03
               8.0721280766653247E-04
               1.9998967510449009E-03
               1.7472503168271820E-03
              -1.0594960097772286E-02
               2.3148124976796846E-03
               5.6578892545276109E-04
              -4.1009623426590536E-03
               5.2193223837137077E-03
               1.5223979253806070E-03
               1.7989281795347803E-04
               2.9976331641001970E-03
              -2.1383258851433050E-03
               3.7421656966612920E-03
              -2.9969305205565218E-04
               7.4775256991614950E-04
              -5.0038532274192561E-03
               1.0720335424604015E-03
               3.2311660738453974E-03
              -4.1776681417147928E-04
               5.0381355171855114E-04
              -3.3732478179658099E-04
              -1.3823527225597957E-03
               5.0618129531532470E-03
              -5.5774566929555475E-04
              -2.8957673264621521E-03
               2.2991670330141829E-03
              -5.0426299632226152E-03
              -4.2179029901481368E-04
               1.5016452664698464E-04
               2.7330387780730059E-03
              -4.8969419208303420E-04
               1.9452389396413126E-04
               5.4343295311156045E-03
              -4.4100573154483838E-03
               5.3236046256086422E-03
              -6.1528662254193406E-04
              -2.8847706582907566E-03
               1.6557406925292646E-03
               4.6376906154187918E-05
              -3.9080559211014526E-03
               1.1025419051193606E-03
              -3.9299243426918207E-03
              -1.7506372504369223E-04
               4.0616505358641109E-03
              -4.2968606249248144E-04
              -1.4975588003370019E-05
               1.4310530706543704E-03
               5.2609567455440759E-03
              -4.6904779553259791E-03
               6.0409308438981691E-03
              -7.1975170082624563E-03
               4.5684500502701378E-03
               1.1245777820024050E-03
              -2.9752137018052103E-03
              -5.4031658845137291E-04
              -1.3925517325304472E-03
              -1.0731821625106072E-03
               2.6067761425665847E-03
              -7.3608244638197575E-04
              -1.7839159842469450E-04
               4.3127712894844928E-03
              -2.0607511949985373E-03
               3.7438228443251987E-03
               3.5202642769170045E-03
              -1.7729990105373196E-04
               1.1851317187877753E-03
              -2.3808878304638339E-03
              -6.0722569539902599E-04
               1.0591773170228762E-03
              -4.7915956437735987E-03
               3.4383385209164293E-03
              -6.3129617954652147E-04
              -4.5067000604957271E-03
               9.9322886924127799E-04
              -1.7100107093331745E-03
              -6.9797373435619495E-03
               7.1877521942950665E-03
              -2.6684160001279555E-04
               1.6266781598464355E-03
              -6.7959879959395147E-03
               6.0147443974288292E-03
               8.5605785208537882E-03
              -4.6446310141644975E-03
               8.8243124772885793E-03
               2.1336469863017314E-02
               2.0002030729720462E-02
               2.5721910295554502E-02
               3.4488435809739777E-03
               6.1514312321286056E-05
               9.0954737700035745E-03
               2.5016559833674961E-03
              -5.8265802627211873E-03
               1.4205941085906811E-05
              -2.3152603010321579E-03
              -6.8926824864335345E-04
              -3.2877978786978838E-03
              -2.2396949750729581E-03
               5.0671741166453989E-03
               5.8346185320655537E-03
               3.8936180872576557E-03
              -2.6418068956847972E-03
              -5.6856135866468023E-03
               1.3036348189953367E-03
               1.3281132339001149E-03
               4.8010983893633872E-03
              -1.8223662704387829E-03
               2.5737707254377329E-03
              -5.5080195280857013E-03
              -4.8065148402685557E-03
               1.9555781766908142E-03
               2.5583862583399911E-03
               1.9347269678712503E-03
               1.7256023916564160E-03
               9.6236994776752887E-04
              -7.8558814057610950E-04
               8.2901645804316498E-03
              -8.8074798979293507E-03
               3.0854525673521126E-03
              -8.7077085786822989E-04
              -2.4108671764710892E-03
               2.3306921263115672E-03
               1.1782277086556704E-03
               9.2908430420409350E-04
               6.5161698996788909E-03
              -1.1653542224207908E-04
              -1.6531407659387805E-03
              -2.5939867270580691E-03
               4.3004400048270684E-03
              -3.0647817514817769E-03
               1.9932449629678542E-04
              -1.1986711988596947E-03
              -2.5212670778034961E-03
               2.3901373055291047E-03
               1.8819931279623276E-03
               1.8447381307618396E-04
              -2.8689490855527723E-03
              -2.9662155155316568E-03
               4.0162151872105223E-03
              -8.2554840343207969E-04
               2.1130633745835310E-03
               2.3805166104684701E-03
              -2.1744805116499480E-03
              -2.0246857764023040E-03
              -4.6608175379457516E-03
               1.4540548336061214E-03
               2.8233061871742130E-03
               5.5371782350334296E-03
              -3.3894340839705367E-04
               1.9130752502569197E-05
              -2.0658684449268829E-03
              -1.6595122553948246E-03
              -1.5448536468946113E-04
               1.8816938148885521E-03
               5.7259340430312524E-03
              -2.4795468685260081E-03
               1.2327567833073593E-03
               2.6520980198193427E-03
              -9.5275964100725885E-04
               1.7916040347769112E-03
               6.9369228043707851E-03
              -5.1049982309469555E-03
               1.3369014310211952E-03
               1.6919991899221807E-03
               1.1884409380154193E-03
              -1.5614505166122615E-03
               1.1072848709592082E-03
               1.0457919257223370E-03
              -1.2902534710936674E-03
               2.5541738625345337E-03
              -3.6918684702961996E-03
               7.0468066030931185E-04
               3.9424041673424733E-03
              -3.4926378859292092E-03
               4.0250691070395890E-03
               1.5828712669026807E-03
               2.5516842364753812E-03
              -3.7769845570931966E-04
               4.1870698490606324E-03
              -3.2954800372658288E-03
              -2.7856495258019292E-03
               2.5504716322503045E-03
              -2.6777218126683273E-03
               6.7437583989835050E-03
               1.0115460864242064E-03
              -2.7748736669937278E-03
               4.2248404404485141E-03
               6.6792834564228364E-03
               3.6345064441236047E-04
              -1.1042549723542768E-02
               5.0617418461089577E-04
              -4.3945365044830966E-05
              -2.1088706066459622E-04
               1.1338033294797775E-03
              -1.6278380616020862E-03
              -6.4798425992673616E-04
               5.6617575823611028E-03
              -3.4687657921566662E-03
              -7.4120478781246777E-03
              -1.0896094488013269E-03
               2.4743459580362608E-03
               3.5246928169891333E-04
               1.1824622846323314E-03
               8.3044149151725258E-06
              -2.0832008951023650E-03
              -7.0436632194039043E-03
              -5.7313763500967433E-04
               4.2049461320113318E-03
               1.1926986349334002E-03
               2.5449957794109741E-03
               1.6053429586300589E-03
              -4.3702984462550969E-04
               2.6833840837547180E-03
               2.7237839885756578E-04
              -5.4114856371481126E-03
               9.0451064923105929E-04
               4.5481463007663479E-03
               1.1253090028000450E-03
               1.3045625982634934E-03
               3.5600486366839975E-04
              -2.5716399172450487E-03
              -2.4270197310936703E-03
               2.5002262366490861E-03
               5.0415878649126703E-03
               2.6854319549320109E-03
              -3.8991826837778860E-03
              -7.7205313623932958E-04
               3.4807723754982905E-03
              -7.1907654722280171E-03
               5.2490652086259210E-04
               2.0135630911329197E-03
               9.9207163406889480E-04
              -5.4488765453810034E-04
               2.0676651128383426E-03
              -3.5314165012313558E-03
              -3.6223906035415272E-03
               3.1451537360280423E-03
              -5.0485018016963000E-03
              -1.1082127424617214E-03
               2.8574108578853521E-03
               2.3304589011688076E-03
               6.7627056454147840E-03
              -1.6651560282142789E-03
               8.0284745914052793E-05
              -1.0330245144446932E-03
              -2.6308861946124852E-03
               1.3339308305909963E-03
               2.3716339036637538E-03
              -4.9835853802332984E-03
               6.0038683033396473E-04
               5.9933172384088323E-03
              -5.6036984890921627E-04
              -2.7201972941313115E-03
              -4.8167867250495881E-03
              -9.8385939596454274E-04
               3.4723793843349912E-03
               3.8472065805670893E-03
              -2.8275224639540619E-04
              -2.0447730808391407E-03
               1.0902354702286917E-04
               3.3337887651965184E-04
               6.2383439712205453E-03
              -1.3787143963732310E-03
              -8.9225196222330260E-04
               1.3120871076014408E-03
               1.2594246313659694E-03
               6.6601019915469087E-03
               5.4649034191881071E-03
              -2.6943498390056037E-03
              -2.5611220534686998E-03
              -8.5995974844155264E-04
               4.9890437723408717E-04
              -8.3876107647799011E-03
               4.0376996215917317E-03
              -9.7854763544065861E-04
              -1.0540061831306002E-03
              -2.7977855824452548E-04
               6.2727332471945849E-04
              -1.4609851661537049E-03
              -3.0271024554260158E-04
               1.6461550919265023E-03
               5.9181530329887265E-05
               1.5746409827342509E-03
              -2.7588066763442540E-03
               1.2916017929637958E-03
               5.2874031408644195E-03
               2.4748092853745726E-03
              -2.5029919315889535E-03
              -3.3938309088884138E-03
              -4.5428323426841379E-04
               3.4949210788948861E-03
              -4.0897214011918603E-03
              -9.8308568514998067E-04
               3.0737107612176795E-03
              -1.9580644840105433E-04
              -1.9263881158379693E-04
               5.8049785357878834E-03
              -1.9045308069321300E-03
               3.7762501855272319E-04
              -4.8489580451599196E-03
               2.4908270834032983E-03
              -1.0705545683478352E-03
              -5.2963074654986491E-04
               5.0022654913079410E-03
               1.6980795646708425E-03
               7.7212202434904392E-04
               3.0219393715726042E-03
              -3.4023657631732486E-03
              -3.8000131250250932E-03
               1.7574575359079222E-03
              -5.4067243447387058E-04
               1.2659189994337940E-03
               1.6703825479507776E-03
              -3.9141753378096021E-04
              -3.7455998659863543E-03
               2.3595265113003916E-03
              -5.3589520252881389E-03
               7.3432538110761126E-03
               5.3207454953350022E-03
               5.2457414848174960E-03
               3.6857352687639446E-03
              -1.7246932879544786E-03
              -6.7929934478265887E-04
              -1.0945103788431386E-02
               4.4969877992922878E-03
              -2.5593545895717181E-03
              -5.6950480508565155E-03
               5.5371037045187546E-04
              -9.9431199302505617E-04
               1.0206499573413942E-04
               4.4030593730582865E-04
               4.3650243170266145E-03
               3.3798948705272033E-04
              -3.0073998088173503E-03
              -5.6749269770849358E-03
               6.5973451061919573E-04
               4.0636139083402717E-03
              -5.5113245336918214E-03
               4.5417731377348424E-03
               5.4687621033242938E-03
              -3.8044250530568052E-03
              -1.7262118346411036E-04
              -1.9698059588311545E-03
              -5.3791104592749994E-04
              -3.3474783690704592E-03
              -6.0530735340141926E-04
               7.2505924620501082E-04
              -5.9033983756432730E-04
               1.6207368954458538E-03
               4.5556189487187615E-03
               4.4044692823860384E-03
              -4.0047883121084845E-03
              -4.2886674874781676E-03
               1.3547028276945491E-03
              -4.6651279810653989E-03
               2.0597623518395394E-03
              -4.6771363098256597E-05
               5.0173236423652501E-06
               7.2628890392737941E-04
               2.0928880353071606E-03
               8.2791705333325628E-05
               5.4357709868735858E-04
              -1.0865546587585824E-03
              -3.6868064007541234E-03
               6.7835413076297851E-04
               1.8188694443826625E-03
              -1.1140432230596587E-03
               1.8122879274169420E-03
              -1.4579840643831777E-03
               2.1304632164028778E-03
               1.1821377115451596E-03
              -7.1630400978653693E-03
              -2.4955718887482330E-04
              -3.0179974324210594E-04
              -9.5991902013691400E-04
               3.9764766908091507E-04
              -4.8177183527023789E-03
               1.4175285139794049E-04
              -1.9289990477027664E-04
               6.2680930833207086E-03
               5.4685133143056604E-04
               4.8735412711146727E-03
               6.1178264877034545E-04
              -1.4604500265680729E-03
               2.1263568251588122E-03
              -4.5596086931562821E-04
               6.7940692612583498E-03
              -9.1056473141113026E-03
              -2.4671927596766198E-03
               5.1472634589355666E-03
              -4.9113203854288306E-03
               3.4149981441445000E-03
              -4.1813414334145472E-03
              -3.7975546842314847E-03
              -4.3902181972210082E-03
               5.2212499403163522E-04
              -2.0405553427845077E-03
               3.0330402736603755E-03
               6.6135368159250954E-03
              -2.2025329478435364E-03
         &END THERMOSTAT_ENERGY
         &RNG_INIT
Wiener process for Thermostat # 1        1 F T T  -1.5505429657892764E+00         661802595.0        2026459976.0        3136775027.0        3268219721.0        1056216878.0        3744216088.0             12345.0             12345.0             12345.0             12345.0             12345.0             12345.0             12345.0             12345.0             12345.0             12345.0             12345.0             12345.0
Wiener process for Thermostat # 2        1 F T T   1.5766939834860993E-01        2521559082.0        1979391111.0        3972826820.0        2839528192.0        3960449033.0        3051881342.0        3692455944.0        1366884236.0        2968912127.0         335948734.0        4161675175.0         475798818.0        3692455944.0        1366884236.0        2968912127.0         335948734.0        4161675175.0         475798818.0
Wiener process for Thermostat # 3        1 F T T  -1.6802103653762466E+00        2464096834.0        3454226368.0         668358963.0        3607867155.0        2139338144.0        1695442074.0        1015873554.0        1310354410.0        2249465273.0         994084013.0        2912484720.0        3876682925.0        1015873554.0        1310354410.0        2249465273.0         994084013.0        2912484720.0        3876682925.0
Wiener process for Thermostat # 4        1 F T T  -9.2120442907176847E-01        3007810664.0         626544053.0           5688727.0        2019501767.0        4050809287.0        2188826537.0        2338701263.0        1119171942.0        2570676563.0         317077452.0        3194180850.0         618832124.0        2338701263.0        1119171942.0        2570676563.0         317077452.0        3194180850.0         618832124.0
Wiener process for Thermostat # 5        1 F T T   1.9586792436148486E+00        3119398129.0        2238966874.0        1731687009.0        1729823850.0        3912388439.0         182524877.0        1597262096.0        3906379055.0        3312112953.0        1016013135.0        4099474108.0         275305423.0        1597262096.0        3906379055.0        3312112953.0        1016013135.0        4099474108.0         275305423.0
Wiener process for Thermostat # 6        1 F T T  -2.2012851380256623E-01         527820745.0        2447393615.0         338698828.0         653439858.0         976211817.0        3944196308.0          97147054.0        3131372450.0         829345164.0        3691032523.0        3006063034.0        4259826321.0          97147054.0        3131372450.0         829345164.0        3691032523.0        3006063034.0        4259826321.0
Wiener process for Thermostat # 7        1 F T T  -1.2191095662093037E-02         167278661.0        2992638024.0        1197931920.0         124710794.0         889033703.0        2194094787.0         796079799.0        2105258207.0         955365076.0        2923159030.0        4116632677.0        3067683584.0         796079799.0        2105258207.0         955365076.0        2923159030.0        4116632677.0        3067683584.0
Wiener process for Thermostat # 8        1 F T T  -2.6373530393371375E-01        2923147749.0        3809475671.0         892364519.0        3114385888.0        3523415917.0        3402922821.0        3281794178.0        2616230133.0        1457051261.0        2762791137.0        2480527362.0        2282316169.0        3281794178.0        2616230133.0        1457051261.0        2762791137.0        2480527362.0        2282316169.0
Wiener process for Thermostat # 9        1 F T T  -1.2388913960989989E+00         276694386.0        3384434371.0        2194062143.0        3864498526.0        2498625561.0        4174179731.0        3777646647.0        1837464056.0        4204654757.0         664239048.0        4190510072.0        2959195122.0        3777646647.0        1837464056.0        4204654757.0         664239048.0        4190510072.0        2959195122.0
Wiener process for Thermostat # 10       1 F T T  -6.9271884074884071E-01         298842605.0        4183294382.0        3769908432.0        1623977651.0        3452521187.0         349927101.0        4215590817.0        3862461878.0        1087200967.0        1544910132.0         936383720.0        1611370123.0        4215590817.0        3862461878.0        1087200967.0        1544910132.0         936383720.0        1611370123.0
Wiener process for Thermostat # 11       1 F T T  -3.9199517781213300E-01        1183014876.0        2469777470.0        2706060047.0        1374668043.0         490283634.0         131761905.0        1683636369.0         362165168.0         814316280.0         869382050.0         980203903.0        2062101717.0        1683636369.0         362165168.0         814316280.0         869382050.0         980203903.0        2062101717.0
Wiener process for Thermostat # 12       1 F T T   1.2248374085476998E+00         744312290.0        1838623065.0        1895433531.0        2930723882.0        3034111406.0        1223209339.0         272317999.0         166758548.0         310112982.0         201045826.0        1680231254.0         118290799.0         272317999.0         166758548.0         310112982.0         201045826.0        1680231254.0         118290799.0
Wiener process for Thermostat # 13       1 F T T   1.6053528300026945E-02         341235087.0         365462780.0         607175623.0        3292057964.0        1611524565.0         256574977.0        2245755202.0        1652682525.0        2865544364.0         721509566.0         209733568.0         592362218.0        2245755202.0        1652682525.0        2865544364.0         721509566.0         209733568.0         592362218.0