 # Version information for this restart file 
 # current date 2022-11-29 19:21:56.857
 # current working dir /scratch/work/courses/CHEM-GA-2671-2022fa/rmo302/comp-lab-class/Week12/Runs/Proton
 # Program compiled at                              Sat Dec 12 18:27:15 EST 2020
 # Program compiled on                                         cs001.nyu.cluster
 # Program compiled for                                                nyu-intel
 # Source code revision number                                       git:8c64c6e
 &GLOBAL
   PRINT_LEVEL  LOW
   PROJECT_NAME proton_amid_1ps_every0.5fs
   RUN_TYPE  MD
   WALLTIME 21600
 &END GLOBAL
 &MOTION
   &GEO_OPT
     OPTIMIZER  BFGS
     MAX_ITER  100
     MAX_DR     3.0000000000000001E-03
     &BFGS
     &END BFGS
   &END GEO_OPT
   &MD
     ENSEMBLE  NVT
     STEPS  2000
     TIMESTEP     4.9999999999999994E-01
     STEP_START_VAL  1500
     TIME_START_VAL     7.5000000000000762E+02
     ECONS_START_VAL    -1.1027144996975105E+03
     TEMPERATURE     3.0000000000000000E+02
     &THERMOSTAT
       TYPE  GLE
       REGION  MASSIVE
       &GLE
         NDIM  5
         A_SCALE     1.0000000000000000E+00
         A_LIST     1.8595758612559999E+02    2.7263853498399998E-01    1.1526100454610001E+01   -3.6414578262600003E+01 \
             2.3173375816020001E+02
         A_LIST    -2.7809524712060002E-01    8.5951591808710006E-05    7.2189048017650004E-01   -1.9844539343859999E-01 \
             4.2409257583420001E-01
         A_LIST    -1.4825808131210000E+01   -7.2189048017650004E-01    1.3590902121280000E+00    5.1498896280349999E+00 \
            -9.9949268450990001E+00
         A_LIST    -1.0372189126880000E+01    1.9844539343859999E-01   -5.1498896280349999E+00    2.6661910891169999E+01 \
             1.1507715495310000E+01
         A_LIST     2.1801346360420001E+02   -4.2409257583420001E-01    9.9949268450990001E+00   -1.1507715495310000E+01 \
             3.0958394565589998E+02
         &THERMOSTAT_ENERGY
               7.4259700455157538E-04
               2.2930383471621968E-06
              -5.3473668735661206E-03
               9.6756301233711459E-03
              -1.9416069302192068E-02
               1.9758743892100477E-03
               2.4991295668997065E-03
              -9.4351780475181186E-03
               1.3063671826401564E-02
               4.4600367555491455E-03
               6.1271429642036045E-03
              -4.6023420691979769E-03
               5.0631117225748666E-04
              -1.2118130441448952E-02
               6.4690827080138066E-03
              -6.8790121063887792E-03
              -1.0841147131314964E-04
              -1.6020603301067880E-04
              -5.3326934300759504E-04
              -2.7765752977419430E-03
               5.7483106243639680E-04
               6.5858395996157932E-03
              -8.7837423923172245E-03
              -2.0287739668721871E-03
               1.6364281883359290E-03
              -5.7580722229774702E-03
              -8.3233861901693034E-04
               3.8554762601872633E-03
               8.3186910732831760E-03
               1.6030468597196222E-03
              -1.1348454595296116E-05
               1.0744046089511048E-04
               2.0799824433662497E-03
               4.3755441433777371E-03
              -1.4966533787412552E-02
               1.7943447479538684E-02
              -6.5386218443183554E-04
              -6.6257375817344389E-03
               6.4450979117070754E-04
               2.1052484380264393E-04
               6.8374353473597618E-03
              -8.3298576641357477E-03
               8.9250153324660804E-03
               2.7245366521506764E-03
              -1.3210677640332390E-03
              -2.7139015963452222E-03
              -3.3664532363953067E-03
               4.6712843498569684E-03
              -1.6019313726306304E-03
               6.0065933390776212E-03
              -3.6877133106222046E-03
              -4.1724316673254370E-03
              -6.0374066595864371E-03
               1.9775217119599913E-03
              -8.3638309397289050E-03
               9.2865330348154800E-03
              -2.5015151675958753E-03
              -1.0644431357459481E-03
               1.6845905209535210E-05
               4.6971663570023079E-03
              -6.5120727619634297E-03
              -7.8156778747602172E-04
               1.5290442226433349E-02
              -1.4266647418435736E-03
               5.8119693233030035E-03
               2.2107397286856398E-03
              -8.1255151355602070E-03
               5.1986409999022947E-03
               6.5837377899931951E-03
               1.9099123277402444E-03
              -2.1555482801935929E-03
              -5.2696165637455654E-03
              -4.0058997477594189E-03
              -1.0604540338315163E-03
               4.1225349385440998E-03
              -1.1698980899943711E-02
               1.7092704690603724E-02
              -2.9579320734102960E-03
               1.2746738005287184E-02
               1.7987485960416292E-05
              -9.2814581150329719E-05
              -4.5614394001987236E-03
              -3.8698338458102320E-04
              -7.2395965176799909E-04
               5.2698975824885599E-03
               2.7460977791003783E-03
               7.0204138002534879E-04
               1.3237250071894719E-03
               7.0713766004838726E-03
              -4.9217505597245982E-03
               8.1114892602286400E-04
              -6.8563499040448124E-03
               5.0268800176962516E-03
               2.8578902393498239E-03
              -1.7623192362097140E-02
               6.7628513788482534E-03
               4.3273450364627883E-03
               3.4034463640560781E-04
               4.5472469904886126E-03
               1.3958733381729945E-03
               4.3776189140804526E-03
              -1.6285432524405824E-03
               7.1268546106217261E-04
               1.0973710206038096E-02
               1.0254255768251314E-02
               2.1799643108542516E-02
              -6.9120483753462919E-03
               6.7100938639000915E-03
               2.4787903529504491E-03
              -8.2616793954404227E-03
              -1.1699765530944080E-03
               1.1222778020427114E-03
               1.1060218443523426E-02
              -7.2012246748516973E-04
               6.1886210001454254E-03
              -7.4999430713864278E-04
              -5.2283832013739796E-03
               2.0355359150891717E-03
               5.9766490928791979E-03
              -1.6101655659978868E-03
               2.6000922466123946E-03
               1.9007309954536531E-03
               4.5244872009991034E-03
               9.7867075120950109E-03
              -1.0780230216437219E-02
              -1.0239496310502699E-02
               5.7884949278486589E-03
              -4.9726297291006094E-04
               5.9530246869805804E-03
              -6.1090377573975937E-03
              -8.7828175442358717E-03
               3.5977760816736826E-03
               6.7971755370015985E-03
              -4.6521513347140900E-04
              -3.0486970561911966E-03
               3.0292270300955929E-03
              -4.4036403508306071E-03
              -6.6824169355448612E-03
              -8.2952420846256578E-04
              -2.7656720019274697E-03
               4.0905414175111451E-03
               9.7223499051690958E-03
               8.9993499517933145E-03
              -5.2681541495254100E-03
              -2.1919104490522889E-03
              -3.8990775770888055E-04
               1.1870407205548569E-02
              -6.4212938611879237E-03
               1.7142500967619249E-03
               1.1918469506712215E-02
              -5.9129325865895652E-03
               5.7292951279788234E-03
              -7.4432781595673448E-03
              -8.8814972876856825E-04
               7.1745853598286849E-03
               6.6395956593824192E-03
               6.9401043362048978E-04
              -5.0138234377411616E-03
              -5.1063390133566644E-03
               2.2966072592840909E-04
               9.6515196214203743E-03
              -3.4141161048339180E-03
               1.7053211948211053E-03
               2.5899853427649956E-03
               4.0107009859689964E-03
               2.1240111277990303E-02
              -4.1138793875493223E-04
              -1.1948850115669910E-02
              -5.3644299820825589E-03
               5.7746406944745258E-03
              -2.0399380951629611E-03
               2.7271749924412600E-03
              -1.1768576822865492E-04
              -4.8350070250166681E-03
              -2.4349075049219068E-03
               1.7106702218203491E-02
              -1.2198833155447024E-02
              -2.9335536958684291E-03
               4.1080536855857058E-04
               1.1468376568510007E-02
              -1.6986319375866833E-03
              -7.5288175819457313E-03
               4.0903205367616609E-03
              -1.1013643474658028E-02
               1.1337485463022412E-02
              -1.0841395022204176E-03
              -1.0368725180890123E-02
               5.4752716640956768E-04
               3.9828964679500614E-04
               1.7648357279433627E-03
               2.4471618521892920E-03
              -4.6836196636581388E-03
               5.9879688421336493E-04
               7.2569705099633491E-03
               3.5898953647442882E-03
              -1.8777183632426183E-03
              -7.3189615001016117E-03
               8.5135491829988249E-03
               3.6205601174867108E-04
              -1.3211595258289708E-03
               1.8281433647034480E-03
              -3.6604417985108039E-03
               3.9978094266735495E-03
               3.4190119339202567E-03
              -1.4828189827959630E-03
               6.9050573584512409E-03
              -4.3366635091580579E-03
               3.0811764822557828E-03
               3.5206106031823383E-03
              -3.4873383474200571E-03
               9.4232349963290906E-04
              -9.3387524619582189E-04
               9.8074051446852880E-03
              -6.0152313067328772E-03
               8.1804809264023805E-03
               5.8594365525905254E-03
              -2.9298024595839564E-03
               6.1734349772395430E-03
               2.9577373201088321E-04
              -9.0542882961147566E-03
               2.4095037646474243E-03
              -8.0275538670502317E-03
              -4.1514673892768437E-04
              -5.1481790146093599E-03
               7.9618442010497819E-03
               7.1959376650899132E-03
               8.4584901183733284E-05
               4.1398471903926013E-03
               4.3478207042224309E-03
               1.0942208069441629E-03
              -4.6856082528786208E-03
               1.3514735579858259E-03
              -7.0241290938455369E-04
               1.2195478814473709E-03
               4.2595126019897758E-03
              -9.2316156995356181E-04
              -9.0316588687391853E-04
              -5.6332040521366745E-03
              -4.7373917601360949E-04
               1.5755101605104647E-03
               7.1845199598115266E-03
               2.9639313774110026E-03
               9.4131849618922635E-03
              -2.2822239657628333E-03
               3.3391767561015110E-03
              -1.2049610320870813E-03
              -1.8926408625930167E-03
              -8.1279663476374088E-04
              -4.4973376547782704E-03
              -4.0090504041261094E-03
               1.0511512026524450E-02
              -3.0562128384456605E-03
              -9.3192497727914766E-03
              -4.6951496185410899E-03
               6.5119062434599194E-03
              -5.1063441171718647E-03
               1.6144253736877317E-02
              -1.1697614777165129E-02
               2.7909768467004686E-03
              -1.3177009103159248E-02
               7.7532328126434669E-03
               1.2794550395431249E-03
              -2.0217658222611069E-03
               9.5342879743644821E-03
               2.6176782175872250E-02
               2.0649672763018510E-02
               2.0493839072168490E-02
               9.5284702819770350E-05
               6.3589782557746874E-03
               1.2120316474656764E-02
               4.4210220180772846E-03
              -1.1064584862302357E-02
               7.1751492124947436E-03
              -4.4866332488074044E-04
               1.9984250968828475E-03
              -4.2102753750951497E-03
              -1.5677456567718438E-02
               8.4136758454344714E-03
               8.9982023279970621E-03
               2.4834741842804792E-03
              -1.1494906028830913E-03
              -2.2149453896372407E-03
               3.2497499183877674E-03
               7.3908482056715364E-03
               8.8164611217883444E-03
               3.4634938558543577E-03
               5.4291525025438880E-03
              -5.9896839054848989E-03
              -9.6404012562298844E-03
               4.3612470668864280E-04
               8.7788956486841464E-03
              -1.6037695137283146E-03
              -5.2096798966863398E-03
              -4.4093717315724333E-03
               7.3313516283606429E-03
               5.0882420801378900E-03
              -1.6493192026606839E-02
               1.0799422673790887E-02
               1.1728517809380031E-02
              -1.2645279626572987E-02
               1.6699758246447242E-03
               1.4893707387816492E-03
               3.1077042721388893E-03
               1.6609884311482769E-02
               3.6054296668177554E-03
              -7.4145944100691002E-03
               4.2499253578796555E-04
              -6.6921938144257551E-03
               9.0308462102119194E-03
               7.0707445519582390E-03
               1.5574360047501672E-03
              -9.1963227270297856E-04
               6.0625651952437376E-03
               1.2723016923010509E-03
              -1.2607876560160780E-03
              -1.2968403779972399E-03
              -6.9008546154236249E-03
              -2.7785350719930425E-03
              -9.8879417628171939E-03
              -3.6326780798063827E-03
               2.1623545263077426E-03
              -2.9406466137202121E-03
              -7.0412738682751547E-04
               3.9829321303896997E-03
              -4.0381358760390590E-03
               5.9088062659266557E-03
               4.7695070230826288E-03
               1.5908614441483536E-03
               2.3430930640600872E-03
              -7.5420851959039483E-04
              -5.3969404088050439E-03
               2.5674085123477764E-03
               5.6849219525446611E-03
              -2.2620795706506294E-03
               7.1053925405884649E-03
              -1.9832750844351422E-04
               5.1845128870939613E-03
              -3.2969840875038501E-04
               6.1241117276552160E-04
               9.8838706549484075E-03
              -1.4196337170784147E-02
               1.0774880517793412E-03
               2.4543860801354888E-03
              -1.6701362076918026E-03
               6.3384906996973751E-03
               8.2800144552232450E-03
               2.7588687894858138E-03
              -8.4154601387242314E-03
               1.0806816076144960E-02
               4.4975108473292924E-03
              -8.8348352432274617E-03
               4.3312247532657002E-04
              -1.0539445019407520E-02
               4.2170400696813415E-04
               4.6137111802501190E-03
              -2.5025234642641826E-03
               9.3475638719523770E-04
              -2.4315870730187705E-03
              -6.4116875447403610E-04
              -2.8186881698703831E-03
              -1.9793472473068332E-03
               2.4829570747223351E-03
               7.9005247268452983E-03
               5.3750440682325462E-05
              -7.3597350099327491E-03
               3.0606335093682660E-03
               9.0211592624002690E-03
               6.3225554994475776E-03
              -1.6857822829652237E-02
               7.6505872853252499E-04
              -4.2428737197811690E-03
              -7.2652104896401529E-04
              -3.7305373480500319E-03
              -2.4562077998201252E-03
               2.6798338871743548E-04
               4.0314278543622309E-03
              -8.3722311867832841E-03
              -1.3152170460141884E-02
               4.0300091837406574E-03
               9.0671761562495286E-03
               8.2748785557385900E-03
               2.1224853823772379E-03
               1.8934633169207008E-03
              -3.5009497493808761E-03
              -2.5836671669863046E-02
              -6.4483892366858629E-04
               1.1232600437716539E-02
               1.6259895348043386E-03
               4.3230612499871408E-03
              -3.1658159555750763E-04
              -3.6216581575776409E-03
               4.9736443623650496E-03
              -1.9515143149805706E-03
               8.9380119717941164E-04
               3.0743000970095600E-03
               1.4405298568025790E-03
              -4.2400751792051909E-03
               1.6436298245152562E-03
               1.1870916109520040E-03
              -3.7704818728310826E-03
              -1.6402223197161140E-03
               6.5702897387993550E-03
              -1.9630652360541961E-03
              -6.2696043554223190E-03
              -7.4678676087863542E-03
               7.8462938998214785E-03
              -2.8323511289895845E-03
              -3.4407649500893182E-03
              -3.9222919831799518E-04
               6.9702542073432306E-03
              -1.1394078766190472E-03
               2.8416161608603302E-03
              -3.1649191887616157E-03
              -3.7800011842449022E-03
               4.9127877379261716E-04
               7.6419122378562675E-03
               7.5340223774422201E-04
              -8.4254688833074990E-04
               1.8029956055141459E-03
               7.7992324680698400E-04
               1.0774110043123933E-02
              -7.8872357615387169E-03
              -1.0150037652500083E-03
               4.7468515713639794E-04
               9.0445181171810787E-03
              -5.6657241472667045E-03
               7.8656980454577395E-04
              -3.8038985175655200E-03
              -7.6371740410102827E-04
               5.5902838072810165E-04
              -3.4010635282385859E-03
              -1.3107343874309261E-02
              -1.5581717225732707E-02
               4.5195855621030998E-03
               1.6858744168090325E-02
               1.2744246801404237E-03
              -5.7033830147456789E-03
              -4.3748969898339913E-03
              -1.4333308041607265E-03
               9.2429628394808238E-03
               3.5769719164960388E-03
              -5.7057512863771260E-04
               2.0555554331562416E-04
               1.0751471130098408E-02
               8.1120462886702816E-04
               5.6903138158211604E-03
               8.4634742576301016E-03
               1.2373720616078679E-02
               2.1177993640548306E-03
              -1.2528914153333405E-02
              -8.9941663863366282E-05
              -6.6528130487322062E-03
              -4.5620088250781831E-03
              -2.7740713716947170E-03
              -2.1230107089646221E-03
              -1.1726397822879296E-03
              -1.1953005151686007E-02
              -1.4722341567416152E-02
              -4.8283172392627437E-03
               4.8794142325686331E-03
               1.4964420082326504E-02
               1.5935453491560372E-03
               2.5218998835343820E-04
               7.6212441642978107E-03
               8.9445791196844926E-03
              -6.1909127947727010E-04
              -9.5860166965961308E-03
              -2.4552610393610915E-03
               7.5035327608026755E-03
               1.1973753935548108E-03
              -7.6130834193560465E-04
              -2.6042590964550747E-03
               6.5537476133715085E-03
              -3.9825685275201005E-04
               1.2695958214749624E-03
               3.4962497733993575E-04
              -5.5961627512240708E-03
               5.6049918397772305E-03
               1.4849891521603212E-03
              -1.7704385969659975E-03
              -4.9414203394695499E-04
              -4.9618863958139706E-03
               8.7750666381365069E-03
               1.7434864437242937E-03
               4.4994554514700500E-03
              -1.0841757881098688E-03
              -2.9151820931308031E-03
              -9.4614105223212296E-03
               3.1330505603549175E-03
              -6.4141465388175946E-03
               4.7007082059857186E-03
               4.0566747672500297E-03
               4.2774315385743144E-03
               9.3392373341427519E-04
               2.1002234906283114E-03
              -7.2520556531533772E-03
               2.8335140301721578E-03
               1.8716135139427931E-03
               3.2277873823579471E-03
               6.9676888132499072E-03
               4.3481586953919822E-03
               5.6554206516898665E-03
              -9.9382041381300915E-03
               8.6854885340930266E-03
              -4.2008619184041272E-03
              -4.0524862867019496E-03
              -7.7560042030094247E-03
               3.8493415242024285E-03
               4.7747889294869157E-03
               5.6987801160536663E-04
              -6.7184811718262278E-03
               8.3405079771767723E-03
              -3.6750079684048130E-03
              -5.0600014756078749E-03
               4.2261814076447780E-03
              -1.4575712453564352E-02
              -7.2637296664937413E-03
               5.4833928050370189E-03
               3.1464561527428307E-03
               1.5848787924276897E-03
              -1.3210271403970420E-02
               1.2043533984413975E-03
               2.2660277370032877E-03
               7.9031992875814314E-04
              -1.9479130815111684E-03
               1.2815692070680511E-04
              -8.1266501053923381E-03
              -1.3412278306479826E-03
              -5.7396687329586301E-04
               1.1270443867516348E-03
               6.9873684952646061E-03
               5.6366358353838499E-03
              -8.2045165444898701E-03
              -3.9081817191090841E-03
              -1.8782919730987409E-03
              -1.1400788425173359E-03
               3.1949872345289330E-03
               1.2097111554065002E-03
               2.4178954061850871E-03
              -2.9803565877540043E-03
              -1.5491332000119990E-03
              -2.2873379735239775E-03
              -6.1279166632237396E-03
              -4.3899723082273527E-04
               8.4363482981866540E-03
              -7.1861749471277786E-04
               6.3607095142775251E-03
              -3.2647319510819188E-03
               3.9969816659649873E-03
               8.6559925903102776E-03
              -5.9120116006350382E-03
              -6.9856479356646007E-03
               2.6682336536383209E-03
              -4.1562374027247755E-03
               4.2927155328855784E-03
              -1.1569508021577238E-03
              -3.7162271571931319E-05
              -2.0085019404261426E-03
               1.0500783520477470E-02
               3.2621578592959733E-03
               4.9367582622763051E-03
               7.2197625497350459E-03
              -3.0686706317552509E-03
               3.0912535176193579E-03
              -3.5247060727900924E-03
               7.0500597551940965E-03
              -1.0575908902010623E-02
              -5.3010136828240083E-04
               5.4212321542782835E-03
              -1.3883059334853557E-03
               1.8458882183550922E-03
              -4.6909736075568262E-03
               1.2322153809732862E-03
              -1.5816429757545082E-02
               1.0505654730127293E-02
               2.8780821445180079E-03
               1.0054899036193037E-02
               3.2240047831794557E-03
              -8.9816571784607138E-03
         &END THERMOSTAT_ENERGY
         &RNG_INIT
Wiener process for Thermostat # 1        1 F T T   1.0570193072987602E-01        2554248455.0        3733268398.0        2096963647.0         915983833.0        1292997779.0         989563289.0             12345.0             12345.0             12345.0             12345.0             12345.0             12345.0             12345.0             12345.0             12345.0             12345.0             12345.0             12345.0
Wiener process for Thermostat # 2        1 F T T  -5.0729818522276993E-01         187792199.0        1332764939.0        1272087322.0         282682701.0         988697858.0        4086000388.0        3692455944.0        1366884236.0        2968912127.0         335948734.0        4161675175.0         475798818.0        3692455944.0        1366884236.0        2968912127.0         335948734.0        4161675175.0         475798818.0
Wiener process for Thermostat # 3        1 F T T   8.9774137220556466E-02        3755061031.0        1753083868.0        1351179932.0         343881147.0        3312142877.0        1244557929.0        1015873554.0        1310354410.0        2249465273.0         994084013.0        2912484720.0        3876682925.0        1015873554.0        1310354410.0        2249465273.0         994084013.0        2912484720.0        3876682925.0
Wiener process for Thermostat # 4        1 F T T   2.1447125495896904E-01        2430503636.0         902227617.0        3039217662.0         205693714.0        2375800914.0        4220709598.0        2338701263.0        1119171942.0        2570676563.0         317077452.0        3194180850.0         618832124.0        2338701263.0        1119171942.0        2570676563.0         317077452.0        3194180850.0         618832124.0
Wiener process for Thermostat # 5        1 F T T  -7.4974817695318574E-01        3949927612.0        4293465109.0         224208328.0         677588237.0        2173092809.0        2514687022.0        1597262096.0        3906379055.0        3312112953.0        1016013135.0        4099474108.0         275305423.0        1597262096.0        3906379055.0        3312112953.0        1016013135.0        4099474108.0         275305423.0
Wiener process for Thermostat # 6        1 F T T  -2.3195632299180402E+00        4147399821.0         968438491.0         174961265.0         382156541.0        3672303660.0        2385050302.0          97147054.0        3131372450.0         829345164.0        3691032523.0        3006063034.0        4259826321.0          97147054.0        3131372450.0         829345164.0        3691032523.0        3006063034.0        4259826321.0
Wiener process for Thermostat # 7        1 F T T  -8.3038096976097500E-03        3725962017.0        3124905816.0        1692649901.0        3685368087.0         990134651.0        3321809881.0         796079799.0        2105258207.0         955365076.0        2923159030.0        4116632677.0        3067683584.0         796079799.0        2105258207.0         955365076.0        2923159030.0        4116632677.0        3067683584.0
Wiener process for Thermostat # 8        1 F T T   7.2955713326517235E-01        1426374835.0        1022225665.0        3431852557.0        2945126969.0        1347790872.0        2047858768.0        3281794178.0        2616230133.0        1457051261.0        2762791137.0        2480527362.0        2282316169.0        3281794178.0        2616230133.0        1457051261.0        2762791137.0        2480527362.0        2282316169.0
Wiener process for Thermostat # 9        1 F T T  -8.3876742673612970E-01        3633457436.0         863053678.0         665967915.0         928783000.0        4027924725.0        3556250224.0        3777646647.0        1837464056.0        4204654757.0         664239048.0        4190510072.0        2959195122.0        3777646647.0        1837464056.0        4204654757.0         664239048.0        4190510072.0        2959195122.0
Wiener process for Thermostat # 10       1 F T T  -6.7138423863751628E-01        3282585865.0         909372753.0         488063086.0        2442536289.0         174422437.0         477575080.0        4215590817.0        3862461878.0        1087200967.0        1544910132.0         936383720.0        1611370123.0        4215590817.0        3862461878.0        1087200967.0        1544910132.0         936383720.0        1611370123.0
Wiener process for Thermostat # 11       1 F T T  -7.2169956836733329E-02        3039538231.0          25912629.0        1608189467.0        1823124278.0        2331127605.0        2449500504.0        1683636369.0         362165168.0         814316280.0         869382050.0         980203903.0        2062101717.0        1683636369.0         362165168.0         814316280.0         869382050.0         980203903.0        2062101717.0
Wiener process for Thermostat # 12       1 F T T  -6.7722400494670465E-01        2762226669.0        4262778377.0        2250707948.0        3120407528.0        3704866228.0        1185520965.0         272317999.0         166758548.0         310112982.0         201045826.0        1680231254.0         118290799.0         272317999.0         166758548.0         310112982.0         201045826.0        1680231254.0         118290799.0
Wiener process for Thermostat # 13       1 F T T  -7.3817531449270457E-01        3689403510.0         367299738.0        3636386471.0        1925893934.0        3355800516.0        3520562622.0        2245755202.0        1652682525.0        2865544364.0         721509566.0         209733568.0         592362218.0        2245755202.0        1652682525.0        2865544364.0         721509566.0         209733568.0         592362218.0