 # Version information for this restart file 
 # current date 2022-11-29 18:08:39.381
 # current working dir /scratch/work/courses/CHEM-GA-2671-2022fa/rmo302/comp-lab-class/Week12/Runs/Proton
 # Program compiled at                              Sat Dec 12 18:27:15 EST 2020
 # Program compiled on                                         cs001.nyu.cluster
 # Program compiled for                                                nyu-intel
 # Source code revision number                                       git:8c64c6e
 &GLOBAL
   PRINT_LEVEL  LOW
   PROJECT_NAME proton_amid_1ps_every0.5fs
   RUN_TYPE  MD
   WALLTIME 21600
 &END GLOBAL
 &MOTION
   &GEO_OPT
     OPTIMIZER  BFGS
     MAX_ITER  100
     MAX_DR     3.0000000000000001E-03
     &BFGS
     &END BFGS
   &END GEO_OPT
   &MD
     ENSEMBLE  NVT
     STEPS  2000
     TIMESTEP     4.9999999999999994E-01
     STEP_START_VAL  1000
     TIME_START_VAL     4.9999999999999636E+02
     ECONS_START_VAL    -1.1027144996975105E+03
     TEMPERATURE     3.0000000000000000E+02
     &THERMOSTAT
       TYPE  GLE
       REGION  MASSIVE
       &GLE
         NDIM  5
         A_SCALE     1.0000000000000000E+00
         A_LIST     1.8595758612559999E+02    2.7263853498399998E-01    1.1526100454610001E+01   -3.6414578262600003E+01 \
             2.3173375816020001E+02
         A_LIST    -2.7809524712060002E-01    8.5951591808710006E-05    7.2189048017650004E-01   -1.9844539343859999E-01 \
             4.2409257583420001E-01
         A_LIST    -1.4825808131210000E+01   -7.2189048017650004E-01    1.3590902121280000E+00    5.1498896280349999E+00 \
            -9.9949268450990001E+00
         A_LIST    -1.0372189126880000E+01    1.9844539343859999E-01   -5.1498896280349999E+00    2.6661910891169999E+01 \
             1.1507715495310000E+01
         A_LIST     2.1801346360420001E+02   -4.2409257583420001E-01    9.9949268450990001E+00   -1.1507715495310000E+01 \
             3.0958394565589998E+02
         &THERMOSTAT_ENERGY
              -1.8241212361353777E-03
              -1.8820396892827460E-03
              -2.3329879626809544E-03
               6.5263417064298224E-03
              -7.2525870187506074E-03
              -4.3273490955060070E-03
               1.4200797127711595E-03
              -4.6616636025824136E-03
               7.1743390693565362E-03
               4.3591619324546233E-03
               7.2537138487800863E-03
              -4.7804842974419302E-03
              -4.9277620516673662E-03
              -6.1793593041530488E-03
               4.1875053910987725E-03
              -8.6922064904796214E-03
               4.8356739905830639E-03
              -3.2021374132570148E-03
               3.9588466574848854E-03
              -1.2994561893420712E-03
               1.1069624453279386E-03
               1.9181035690880503E-03
              -8.0782717412649346E-03
               1.1503560160126154E-03
              -5.3683450673937749E-04
              -4.0455325309103661E-03
              -6.1869861268740319E-04
               8.1698207199824343E-03
               4.6661123880752508E-03
               2.1906749475747748E-03
              -4.9017683470523382E-03
              -4.1623321586698792E-04
               5.1076593098831786E-03
               3.6094339374159717E-03
              -1.3410384075346841E-02
               1.4466893404921454E-02
              -3.3393701132115160E-03
              -1.7546838914112120E-04
               2.0318530084550189E-03
              -9.5514875269158885E-03
               6.6353357475563727E-03
              -1.8366365111118373E-03
               5.9579278908086074E-03
               2.4147841891902933E-03
              -1.9801616043187455E-03
               2.2917090802041038E-04
              -3.8818948016742585E-03
               4.7760342087174723E-03
              -6.0070655131656424E-04
              -3.5118029178087869E-03
               2.2966408623049197E-03
              -5.5856192436705074E-03
              -5.0799438336566289E-03
               2.8648081091920798E-03
              -2.8759769142541781E-03
               2.2593901625690025E-03
              -3.0715599527124365E-03
               7.2858935007733558E-04
              -2.2634521181714769E-03
               7.3804146290452127E-03
              -2.6007447639591519E-03
               3.2655840478382093E-03
               1.1374019110517839E-02
              -6.9668513410068786E-04
              -1.6069149320964895E-03
              -9.8290005268122232E-04
              -3.4911158594036818E-03
               5.4306790192718262E-04
               8.3380189240472875E-03
               3.0049856760279059E-03
               5.5347324118040575E-03
              -3.5459200990698722E-03
              -2.7720647665767087E-03
              -6.5384387050822820E-04
               2.4790671909831006E-03
              -5.0318843321318779E-03
               1.0962087547709177E-02
               1.1055244433606482E-03
               1.3258420203204826E-02
              -8.5720168957267927E-04
              -7.4173574621383973E-03
              -2.3925450658075905E-03
               1.0326808374421237E-03
              -1.2455119328402997E-03
               2.8412767463280222E-03
               3.2596424962426573E-03
               1.8785895308501364E-03
              -1.4206536194871444E-04
               6.3661050233095500E-03
              -5.0716297226320387E-03
               7.4183090150269494E-04
              -6.5053834944606911E-03
               5.8025598417119698E-03
               1.8584231245508992E-03
              -1.5954959422088445E-02
               6.5750878874995195E-03
               6.2263878403287804E-03
               4.2348625949469310E-03
               2.9784011885370400E-03
               3.0751222191940861E-03
              -2.8513475402285791E-03
              -3.3791355662363331E-03
              -4.9065417653478547E-04
               1.3077264544380299E-02
               7.5385358383459229E-03
               1.4908332710095902E-02
              -1.3735737322672400E-03
               1.2168994596606867E-02
               4.2329177469270568E-03
              -4.9983351248858859E-03
              -3.8270406770040104E-04
              -2.4829423804990491E-03
               3.6398272765858298E-03
               6.6280403429798459E-03
               4.4553856167875491E-03
              -1.6295874153130099E-03
              -1.0193922961562617E-02
               3.3233408826286504E-03
               3.4032427966599523E-03
              -1.5112140547289782E-03
              -7.9960343166267443E-04
               2.8935821026009503E-03
               4.8598758254760361E-03
               1.1941035870622526E-02
              -6.6968541126147738E-03
              -9.0008308378410635E-03
               2.6414074675164966E-03
              -5.6819484750871604E-04
               2.2136925052657235E-03
              -7.8690207399757760E-03
              -1.0528640934265197E-02
               6.9632203304039126E-03
               4.3520760547931282E-03
               1.9985400693053020E-03
              -1.8264411044886313E-03
               9.0324678722906028E-04
              -2.3140090427140755E-03
              -3.8718537693818830E-03
               6.1812618177341477E-04
              -7.8247374530433858E-03
               6.0545162930374305E-03
               1.1391273162490700E-02
               6.3221065984625123E-03
              -7.0875771826060226E-03
              -1.8830868870508622E-03
               3.1943502816595714E-03
               1.0001284032679442E-02
              -3.7780474916660639E-03
               4.5073307818949840E-03
               4.4926284679962392E-03
              -4.0400851645889593E-03
               3.5879807275959880E-03
              -1.4611885707505876E-03
              -5.9901191074458195E-04
               7.3394967960238231E-04
               3.4499118166259985E-03
               1.6437192649297987E-03
              -6.4050031586933608E-03
              -2.4408517359610239E-03
               4.1510906261686695E-03
               1.6679979438154651E-03
              -3.3195871673803142E-03
              -2.1378924242773417E-04
              -2.0118623714430192E-04
               4.7543091038545707E-03
               1.1060669327484963E-02
              -1.4707329581942672E-03
              -4.4114188547107434E-03
              -7.8149175351705426E-03
               2.2511783799337957E-03
              -9.2575436356214110E-04
               3.0872824086444341E-03
              -1.0091565103722319E-03
              -6.7182583194409897E-03
               1.4736091063600591E-03
               1.1098708369027868E-02
              -6.4495274625751371E-03
               1.0828495961054474E-03
              -4.2152669853927731E-03
               7.7298820811010967E-03
               2.1844468212803029E-03
              -2.7603119393362361E-03
               2.4854727391722198E-03
              -6.6825590891877165E-03
               5.5960718152579169E-03
              -8.3625304195468204E-04
              -9.8926721708527086E-03
               3.9232815164687643E-03
               3.0145587776827742E-03
               4.1563558676428150E-04
               3.0245550964155270E-03
              -2.4748065083081078E-03
              -2.5052869354394644E-03
               4.8100274368426165E-03
               6.3291522414179414E-03
               3.8366545452408357E-04
              -5.7358725061503642E-03
               7.0099877912871197E-03
              -4.9052370139775875E-05
              -1.4935892707217726E-04
               2.0032984138085982E-03
              -7.9584088166741694E-03
               9.3785424586120790E-03
               1.8723977436709903E-03
               1.7054767011606106E-04
               1.9085876027640412E-03
              -4.5568953731762339E-03
               3.9089014519030777E-03
               2.9511564127756617E-03
               8.9702825662218413E-04
               1.7116373945185127E-03
               2.7738472376392254E-03
               6.9550487517562717E-04
              -4.8344763904120593E-03
              -5.9978865856942054E-04
               5.4481138305600930E-03
              -3.0845816866565110E-03
               7.0222640096978921E-03
              -2.6033471253815196E-03
              -7.2615105309975156E-03
              -1.6549936200378342E-03
              -4.4744458156652685E-03
               7.0656282888330085E-04
               4.9628389382532128E-03
               4.1518319293456325E-03
               2.4270928594368126E-03
               5.0607708159729377E-04
               7.1959045741248426E-03
               7.4038555977057130E-03
               7.7424337001793695E-04
              -6.5609291863365192E-03
              -2.7848149297620507E-04
              -1.4710559454403249E-04
               4.8081374141823742E-04
               4.4249719832353575E-03
              -7.7365993278581951E-04
              -3.1894795599016717E-03
              -1.9447258791411739E-03
              -1.1032442803314171E-03
               1.4186447470806201E-04
               5.0459090615059638E-03
              -7.5931718806321125E-03
               5.5289421393417042E-03
               2.0651762602729340E-03
               2.8746812866506334E-03
               1.1167793458339895E-03
              -4.9617594255526457E-03
              -4.0577540562818535E-03
               1.5833839385638497E-03
              -3.6748590844070160E-03
               3.8675249771002685E-03
              -6.5920424357487710E-04
              -8.5613600346955698E-03
              -1.7269945101286955E-03
               1.9780577848115969E-03
              -4.0942365055954945E-03
               1.5694823767477085E-02
              -5.8505115099466648E-03
               1.8268732243322881E-03
              -1.4784054931777531E-02
               8.8351499237283651E-03
               3.5380123292339375E-03
              -5.0700047416737557E-03
               1.0477214552969578E-02
               2.8394313615056180E-02
               2.0693540484312743E-02
               1.9112784558274247E-02
               2.1805451418613737E-03
               4.2825660919464754E-03
               6.7575925614040272E-03
               1.0495335745107149E-02
              -1.1931309128372369E-02
               3.2166586206980930E-03
              -4.3036084781967532E-04
               5.5313325094881851E-04
              -2.0533862524063171E-03
              -8.4633152767824450E-03
               7.4383250985147328E-03
               3.2037155975686879E-03
               3.2645657404034379E-03
               3.4670470530884880E-03
              -9.4171526990565746E-03
               4.3272316817697422E-03
               3.1151407999351413E-03
               1.0803990749420076E-02
              -2.1697375167937160E-03
               4.7788023551843112E-03
              -9.4080736744213619E-03
              -9.2268769108166879E-03
               2.8526202194345189E-03
               3.6232157676986169E-03
              -6.9814713301737650E-04
               1.4439928441025264E-03
               3.5298001215308991E-03
               2.1769388991088783E-03
               2.1225456018502229E-03
              -6.1029507879694902E-03
               9.4004651729512837E-03
               1.9521549773935444E-03
              -8.2874663098024843E-03
               7.9524802134664833E-04
               3.5328742862623355E-05
               3.5370477656089068E-03
               1.0668269844129849E-02
               1.5083298670927039E-03
              -6.1877201053186321E-03
              -9.9378437852167727E-04
              -7.0734482780537801E-03
               4.6355238834497456E-03
               7.8827122487807513E-03
              -5.6461948772955632E-04
              -2.2952288844224717E-03
              -2.5083119879549505E-03
               3.7700041782961465E-03
              -1.3713411950526506E-03
              -1.3439158969814867E-03
              -8.1396965828567733E-03
              -1.2687612091930992E-03
              -5.6550035962191257E-03
              -4.1980606079579210E-03
               5.3042157325291564E-03
              -2.0140181692392617E-03
               6.9906593221537295E-04
              -2.5790361328523512E-04
               6.4689725801218921E-04
               3.4906443687133535E-03
               3.5590836429891010E-03
              -5.0265972208255599E-04
               2.9528285886603247E-03
              -1.5578385361768579E-03
              -3.9890698134219622E-03
               3.6804590233410924E-04
               6.3075707848336826E-03
               7.8307844811023890E-04
              -3.8472644667538560E-03
               4.0438684091239300E-03
               5.0398883344508153E-03
              -2.2949529808742020E-03
              -2.3541884801576995E-04
               6.8316426533365808E-03
              -1.1212135212815342E-02
               1.3287969552149607E-03
               8.2272871774624456E-03
              -3.1309087862822099E-03
               2.6151407041832431E-03
               7.3739447490703937E-03
               6.4289257772243906E-04
              -5.3357863175504897E-03
               5.0913277555554980E-03
               5.5327176698243528E-04
              -2.0012239844934292E-04
               2.5635531623818034E-03
              -1.3297870111520393E-02
               4.3371770650467989E-03
               2.1329547771898787E-03
              -2.1513658707498166E-03
               4.1832772050772506E-04
               4.2926660604678136E-03
              -5.5125573009396425E-03
              -1.1453448122894809E-03
              -1.8074072945893970E-03
               4.9897642939163217E-03
               4.0418320474264807E-03
               1.5865261022061155E-03
              -2.1622967510159271E-03
               2.8517171317076571E-03
               1.2305370927568211E-02
               4.9036703134598056E-03
              -1.5950832651216149E-02
               2.4493975750260696E-03
              -2.7807440108217002E-03
              -1.5767528708632750E-04
              -5.8193177985322577E-04
               6.8997923988684603E-04
              -1.1913902183356088E-03
              -6.3355644704052392E-04
              -7.1200052137899844E-03
              -7.1590610415044357E-03
              -6.5048257263449734E-03
               8.5691995833873658E-03
               7.1441803042736904E-03
              -2.4967165702057424E-03
               1.8077587862620442E-03
              -3.3228848767343899E-03
              -1.6407442757267625E-02
               8.4978391046933752E-04
               6.0206968755919365E-03
               3.6907612556878414E-03
              -1.2889244204023309E-03
               2.9883263513472039E-03
              -1.4518863242336936E-03
               3.5405059291497808E-03
              -2.8802540073144312E-03
              -3.6634400945898568E-03
               3.3091718336846548E-03
               1.1082654908181836E-03
              -2.8039960281864263E-03
               1.9750066533624332E-03
               1.0942616730700706E-03
              -3.6176999848255499E-03
              -5.3837614510452651E-04
               1.6770817897365279E-03
              -2.5573196801011843E-03
              -2.0859798207371118E-04
               4.7955627830582783E-04
               5.8120428123744116E-03
              -5.0197386150933841E-05
              -4.6009783220506036E-03
              -9.5584722496276045E-04
               3.6710293966119734E-03
               1.1149277634965120E-03
               1.6043184283405314E-03
              -2.7924662736534466E-03
              -3.6860575512688075E-03
               3.4779290742343802E-05
               2.4337278768303766E-03
              -3.6865872897310584E-03
               4.6999917492782312E-06
               1.3895291357176789E-03
               4.0241527897767835E-03
               7.1080926941179895E-03
              -3.5673272991974159E-03
              -4.7926361359459727E-03
              -1.0596417247702140E-03
               7.2150784849551340E-03
              -1.9661269890036432E-03
               1.9141684217261997E-03
              -5.1130208533328326E-03
               7.7159521322245556E-04
               7.2964100922498672E-03
              -3.9208557977830150E-03
              -7.8664442237720133E-03
              -1.5395695117830295E-02
               3.9230434824682591E-03
               1.2678577072966801E-02
               2.0258922127816760E-03
              -2.8774488897469518E-03
              -4.6889061806745305E-03
              -1.1412488257237410E-03
               2.4396950075706403E-03
               5.9764845577730307E-03
               1.5078401157984735E-03
               2.1819774243648600E-03
               3.0858904073311601E-03
              -1.0526704268160421E-03
               6.8269661005943118E-03
               7.9283070120848356E-03
               8.3507689057869556E-03
               4.1578662823352214E-04
              -6.8738071502555172E-03
               8.3478302309873741E-04
              -7.0960114392484138E-03
              -8.2583908968440886E-04
              -4.9869757630592272E-03
              -1.5975600915918697E-04
              -1.8484454005949055E-03
              -5.7715989894933329E-03
               3.9856035719053437E-04
              -4.5302745427946295E-03
              -6.8703883963532151E-04
               5.5679418107441730E-03
               7.0099624576356982E-03
              -1.2891527678954991E-03
               4.8033603685704784E-03
               7.1507258454841472E-03
               1.1956264048374921E-03
              -3.0868581479685854E-03
              -5.9663757150663424E-03
               9.3310056513153897E-06
               3.7130666407825469E-03
              -2.8495896700763052E-04
               8.1266893966950942E-04
               2.8896820515077813E-03
              -2.0169963682222444E-03
               4.8387691454853825E-04
               2.4629443153874730E-03
               5.9171285815009836E-05
              -1.6144736193535285E-03
               6.7768920016286250E-04
               1.6604776989581683E-03
              -4.9329663615881080E-04
              -1.8868619580649009E-03
               7.0605731629548828E-03
               7.0023481977064708E-04
               3.2470900179745366E-03
              -1.9384828430704312E-03
              -4.1410826309428127E-03
              -2.8262803359110568E-03
               1.4549803738916165E-03
              -3.2380282704793720E-03
               4.9736954914254643E-05
               6.1198433941477290E-03
               1.7906822811796419E-03
               1.5825905026144432E-03
               2.4372406689992564E-03
              -3.6863694018913853E-03
               3.5247235334263196E-03
               8.6125805698726977E-04
               2.9395536433438375E-03
               3.2262856622025235E-03
              -1.9102982093922012E-03
               3.3872178374587288E-03
              -1.4697223731510061E-02
               2.0979533474210745E-02
              -5.7139013938764371E-03
              -4.8354150026836970E-03
              -5.4593226505804367E-03
               2.1654116058165171E-03
               2.7874622847232152E-03
              -2.2906262534814767E-03
               2.8315711376398541E-03
               3.0346401080128490E-03
              -4.7165700198085218E-03
              -8.4881595454644708E-03
               4.4200021652376085E-03
              -3.6234926801693257E-03
              -6.9410842987223664E-03
               3.1963437526811769E-03
               1.9343662976778120E-03
               1.7931543958632375E-03
              -1.2314245172254995E-02
               3.6398224231872739E-03
              -1.1379978527349165E-03
              -2.9904092546297490E-03
               5.0395790636936838E-03
               7.6762143785339581E-04
              -4.6435148332322458E-03
               1.9232657434525950E-03
              -3.5990073236616018E-03
               3.3815433963328696E-03
               4.3248925690779006E-03
               2.8168243102082704E-03
              -4.0291665921117431E-03
              -2.1632117495090772E-03
               3.3669465880277779E-03
              -9.6486918321903731E-04
               2.6009972695893828E-03
              -2.6831137765031968E-03
              -1.2262822064267348E-03
               7.9297685154152177E-03
              -1.4794638816306689E-03
              -1.9678920010802003E-03
              -6.9343289240387162E-03
               3.0241865851352830E-03
               6.5105747777562898E-03
               1.7429550618689219E-04
               5.6310746251471509E-03
              -3.6972806076536842E-03
               5.8181254317863076E-03
               4.0675267301153043E-03
              -7.5610648301433839E-03
              -4.5495509177421040E-03
              -2.4790082554245965E-04
              -3.5731909844858513E-03
               1.3593857572800233E-03
              -2.5130899822224518E-03
              -5.3384582845161328E-03
              -3.9366273479188559E-03
               8.8391157093280458E-03
               3.4167351229050084E-03
               7.1725834245160653E-03
               3.4967030875734319E-03
              -7.6951926871496768E-04
               2.0187794667604134E-03
              -3.3359120858886290E-03
               8.5050980249233230E-03
              -1.3161921046254800E-02
               1.0436598903816178E-03
               1.4367123769037965E-03
              -3.4818279269020753E-03
               3.9992370463212673E-04
              -3.5351635398940453E-03
              -3.1017154362297469E-03
              -1.0306846847041983E-02
               1.6432348153759305E-03
               1.9602201643646932E-03
               1.0489905939374839E-02
               4.8477447283410968E-03
              -5.6409245325315877E-03
         &END THERMOSTAT_ENERGY
         &RNG_INIT
Wiener process for Thermostat # 1        1 F T T  -9.8236738167888460E-01         226733040.0        4248387519.0        1164353849.0        2758509449.0        3644127687.0        1764793484.0             12345.0             12345.0             12345.0             12345.0             12345.0             12345.0             12345.0             12345.0             12345.0             12345.0             12345.0             12345.0
Wiener process for Thermostat # 2        1 F T T  -1.4171306107827426E+00        1528154308.0        2775625301.0         197130159.0        1452211673.0        1835562137.0        1983376171.0        3692455944.0        1366884236.0        2968912127.0         335948734.0        4161675175.0         475798818.0        3692455944.0        1366884236.0        2968912127.0         335948734.0        4161675175.0         475798818.0
Wiener process for Thermostat # 3        1 F T T   8.6049543281786645E-01        2248570378.0        1724762616.0          52903713.0        3229622658.0        3199004837.0        4241126217.0        1015873554.0        1310354410.0        2249465273.0         994084013.0        2912484720.0        3876682925.0        1015873554.0        1310354410.0        2249465273.0         994084013.0        2912484720.0        3876682925.0
Wiener process for Thermostat # 4        1 F T T  -1.5460863137690717E+00         957380376.0         510326667.0        2247033635.0        2033071685.0        3054261466.0        3462352516.0        2338701263.0        1119171942.0        2570676563.0         317077452.0        3194180850.0         618832124.0        2338701263.0        1119171942.0        2570676563.0         317077452.0        3194180850.0         618832124.0
Wiener process for Thermostat # 5        1 F T T   1.5428690481661575E-01        4203301200.0         738999836.0        1485820986.0          20648636.0        2223680357.0        4294941489.0        1597262096.0        3906379055.0        3312112953.0        1016013135.0        4099474108.0         275305423.0        1597262096.0        3906379055.0        3312112953.0        1016013135.0        4099474108.0         275305423.0
Wiener process for Thermostat # 6        1 F T T   7.0411917217518150E-01        1265311014.0        3687607523.0        1792102642.0         142025920.0         459804801.0        1211121065.0          97147054.0        3131372450.0         829345164.0        3691032523.0        3006063034.0        4259826321.0          97147054.0        3131372450.0         829345164.0        3691032523.0        3006063034.0        4259826321.0
Wiener process for Thermostat # 7        1 F T T  -9.5744195640119531E-02        4040223344.0        4246262317.0         329086624.0          28777921.0        2946509694.0        1489700490.0         796079799.0        2105258207.0         955365076.0        2923159030.0        4116632677.0        3067683584.0         796079799.0        2105258207.0         955365076.0        2923159030.0        4116632677.0        3067683584.0
Wiener process for Thermostat # 8        1 F T T  -1.2413826789147817E-01         252045112.0        2848200345.0         154646410.0        1271924195.0        1873079261.0        3351978939.0        3281794178.0        2616230133.0        1457051261.0        2762791137.0        2480527362.0        2282316169.0        3281794178.0        2616230133.0        1457051261.0        2762791137.0        2480527362.0        2282316169.0
Wiener process for Thermostat # 9        1 F T T   1.0331244080464512E+00        3784506675.0        1914172684.0        3527875272.0        1610827989.0        3855196701.0        1117597481.0        3777646647.0        1837464056.0        4204654757.0         664239048.0        4190510072.0        2959195122.0        3777646647.0        1837464056.0        4204654757.0         664239048.0        4190510072.0        2959195122.0
Wiener process for Thermostat # 10       1 F T T   2.1466585360569199E-01        3057685686.0        2869029583.0         411221469.0        2821893460.0         322924656.0        1143227575.0        4215590817.0        3862461878.0        1087200967.0        1544910132.0         936383720.0        1611370123.0        4215590817.0        3862461878.0        1087200967.0        1544910132.0         936383720.0        1611370123.0
Wiener process for Thermostat # 11       1 F T T  -4.4132046785776799E-02        1554543736.0        2717576499.0        4135075403.0        2618383353.0         642871762.0         249586537.0        1683636369.0         362165168.0         814316280.0         869382050.0         980203903.0        2062101717.0        1683636369.0         362165168.0         814316280.0         869382050.0         980203903.0        2062101717.0
Wiener process for Thermostat # 12       1 F T T  -5.6161533877704317E-01        1770324141.0        3770017049.0         190859559.0         764828178.0        2918138424.0         736540625.0         272317999.0         166758548.0         310112982.0         201045826.0        1680231254.0         118290799.0         272317999.0         166758548.0         310112982.0         201045826.0        1680231254.0         118290799.0
Wiener process for Thermostat # 13       1 F T T   9.7554409384929153E-01        3627045108.0        1898589428.0        2752141753.0          85759421.0        2499273175.0        1137986601.0        2245755202.0        1652682525.0        2865544364.0         721509566.0         209733568.0         592362218.0        2245755202.0        1652682525.0        2865544364.0         721509566.0         209733568.0         592362218.0