 # Version information for this restart file 
 # current date 2022-11-29 20:39:52.830
 # current working dir /scratch/work/courses/CHEM-GA-2671-2022fa/rmo302/comp-lab-class/Week12/Runs/Proton
 # Program compiled at                              Sat Dec 12 18:27:15 EST 2020
 # Program compiled on                                         cs001.nyu.cluster
 # Program compiled for                                                nyu-intel
 # Source code revision number                                       git:8c64c6e
 &GLOBAL
   PRINT_LEVEL  LOW
   PROJECT_NAME proton_amid_1ps_every0.5fs
   RUN_TYPE  MD
   WALLTIME 21600
 &END GLOBAL
 &MOTION
   &GEO_OPT
     OPTIMIZER  BFGS
     MAX_ITER  100
     MAX_DR     3.0000000000000001E-03
     &BFGS
     &END BFGS
   &END GEO_OPT
   &MD
     ENSEMBLE  NVT
     STEPS  2000
     TIMESTEP     4.9999999999999994E-01
     STEP_START_VAL  1999
     TIME_START_VAL     9.9949999999998238E+02
     ECONS_START_VAL    -1.1027144996975105E+03
     TEMPERATURE     3.0000000000000000E+02
     &THERMOSTAT
       TYPE  GLE
       REGION  MASSIVE
       &GLE
         NDIM  5
         A_SCALE     1.0000000000000000E+00
         A_LIST     1.8595758612559999E+02    2.7263853498399998E-01    1.1526100454610001E+01   -3.6414578262600003E+01 \
             2.3173375816020001E+02
         A_LIST    -2.7809524712060002E-01    8.5951591808710006E-05    7.2189048017650004E-01   -1.9844539343859999E-01 \
             4.2409257583420001E-01
         A_LIST    -1.4825808131210000E+01   -7.2189048017650004E-01    1.3590902121280000E+00    5.1498896280349999E+00 \
            -9.9949268450990001E+00
         A_LIST    -1.0372189126880000E+01    1.9844539343859999E-01   -5.1498896280349999E+00    2.6661910891169999E+01 \
             1.1507715495310000E+01
         A_LIST     2.1801346360420001E+02   -4.2409257583420001E-01    9.9949268450990001E+00   -1.1507715495310000E+01 \
             3.0958394565589998E+02
         &THERMOSTAT_ENERGY
              -1.1557075714308601E-03
               9.5073505042391556E-04
              -5.2382945616920419E-03
               6.1667269633611703E-03
              -1.1903578526648202E-02
              -6.2811094400657124E-04
               1.9979595083660581E-03
              -5.4849893131880371E-03
               1.4184944742854044E-02
               3.4918828041869249E-03
               6.4397472565576675E-03
              -1.7836465247789725E-03
              -9.1628574256653952E-03
               7.3256727371324981E-04
               2.7201608384295724E-03
              -1.0808986357410759E-02
               3.9678963401892757E-04
              -4.1753375366904997E-03
              -1.1473205764207571E-03
               3.4284798377756187E-04
              -1.7570640826128842E-03
               1.0908012709693314E-02
              -1.3478102299394615E-02
              -4.2467267793355355E-03
               4.6362899801676684E-03
              -8.8371040682393414E-03
               1.0185044377081041E-03
               4.1278352924754309E-03
               9.8075527492904498E-03
               4.0518410937812940E-03
               2.6754389005484115E-03
              -1.6021283022753647E-03
              -3.3338511109115121E-04
               9.2412703592376945E-03
              -8.7108539365627850E-03
               1.0005716943354236E-02
               2.2467680722438625E-03
              -6.8680746631968239E-03
              -7.7528995809080523E-04
               2.7580021647833443E-04
               8.4493821250746313E-03
              -1.3839894746145996E-02
               9.6056639847623415E-03
               4.1147826098311257E-03
               7.9313940009500487E-04
              -4.0608506246409713E-03
              -8.7105215613443292E-03
               4.7615532083065404E-03
              -2.1731990063424459E-03
               3.6038401600238814E-03
              -2.9043104322312259E-03
              -7.2704642837151954E-04
              -2.2018131070341692E-03
               1.9309445677825031E-03
              -8.5434983051426924E-03
               9.7911684085759832E-03
              -3.3703652744767978E-03
              -1.9841318590887108E-03
               4.5243578614110125E-03
               5.8501737977715955E-04
              -5.7510908401612456E-03
               4.6267445215210489E-03
               1.7999080925647351E-02
              -3.8161202494293276E-03
               5.6793404901619247E-03
               2.5036937925655570E-03
              -6.2292954416548951E-03
               6.4172844394613498E-03
               9.7671871056059546E-03
              -1.1497524230824153E-02
              -3.9512324732206908E-03
              -4.7115072087226002E-03
              -4.0193094369160368E-03
               2.3393344747451735E-03
               4.9962794044313178E-04
              -2.0834588916540775E-02
               1.8609852632325560E-02
               8.3179030675654996E-04
               1.0787542620850920E-02
              -4.4325406304383092E-04
               3.1319508248489453E-03
              -8.5664658889645761E-03
               3.0160966978598594E-04
               9.8502282070930011E-04
               8.4837901383942181E-04
               5.8101258169659274E-03
               3.9929535039275200E-03
              -5.1360570421402100E-03
               8.1265569345283818E-03
              -8.0713971101648851E-03
               2.3278027616438178E-03
              -7.3506925866198888E-03
               4.5215575633176901E-03
               8.6950035760650652E-03
              -1.5312379846911897E-02
               3.9767447206484037E-03
              -2.3302246619478525E-03
               2.1231970665773598E-03
               3.2144818457241764E-03
               2.3661369362021410E-03
               9.7303994742907064E-03
              -4.3832310203288189E-03
              -5.0759097217268848E-03
               3.8969647386762896E-03
               1.6624240827802780E-02
               1.1868082664798045E-02
               2.3071071468726565E-03
               1.5801043730058171E-02
               3.5396532979328184E-03
              -8.8160277490317088E-03
               1.9898221647379438E-03
               6.5800492244986585E-04
               8.0338048994314688E-03
              -2.5269390461445194E-03
               5.0546319204291213E-03
               1.5103611803457249E-04
              -6.3291118943540111E-03
               1.1369124524838821E-04
               6.8833532013521936E-03
               9.5194070498383419E-04
              -2.9156960439360275E-04
               4.4647096423691316E-04
               9.1985000356916043E-03
               1.1438211951450148E-02
              -1.3714631580628129E-02
              -1.2091627866182583E-02
               1.2767543055715069E-03
               2.9276613223631507E-03
               2.6109153752133744E-03
               1.4622371962893248E-03
              -6.5315642089545977E-03
              -2.0344231773213330E-03
               9.0922564881894576E-03
              -2.2358446666461843E-03
              -4.8272714477893526E-03
               4.5320679927454456E-03
               2.5953901463501351E-03
              -1.0655414927919559E-02
              -6.1875245302940472E-03
              -1.6717112598826672E-03
               1.4786928103915041E-03
               5.7055005156013954E-03
               8.9685325519789031E-03
              -1.4688606814213096E-03
              -4.7210978625060522E-05
              -3.9851705005334009E-03
               7.3042542701809449E-03
              -7.1039707205179734E-04
              -7.7018679088762523E-03
               1.4229274323117725E-02
              -1.0411826446628844E-02
               4.4357083246350975E-03
              -1.5081113745656533E-02
               3.7552408688411839E-03
               8.5396412471825250E-03
               6.2359906447865508E-03
              -2.7815187950465652E-03
               3.4035237777244611E-03
              -8.9577664409165297E-03
               1.7731907947339622E-03
              -3.6753944775034337E-04
               8.0968538868421934E-04
               3.0019716217445994E-03
               3.5086845819875482E-03
               8.9163969949932909E-03
               2.8821461561067484E-02
               4.0455423051042050E-03
              -2.5614904439845598E-02
              -3.2517142660003135E-03
               4.1098713162870150E-03
              -6.8713735392259903E-03
               2.7205375787603303E-03
               2.1489660413742781E-03
              -5.6389046067811047E-03
               4.7167195274650208E-04
               1.7541029805495448E-02
              -1.1125436338717059E-02
               4.5358404182122150E-03
               1.0196947436785648E-04
               6.1972196798646996E-03
               9.8866680709226371E-05
              -7.4766418396993890E-03
               8.1125985703625972E-04
              -1.0121461454970939E-02
               1.3404745787768515E-02
              -1.9077890576537917E-03
              -1.5291695911954149E-02
               3.8605185025123042E-03
              -4.8647592252935709E-03
              -6.0044727964435351E-05
               1.8844958539730066E-03
              -5.0027842054121679E-03
              -4.3473787088698567E-03
               4.4334293028201058E-03
               2.6391808811835039E-03
              -2.6037289617983146E-03
              -7.3881022968794062E-03
               1.2016609462512337E-02
               3.8326422903151697E-04
              -4.3031665198151811E-03
              -2.5286218250547311E-03
               4.9881853956380720E-04
               1.0373539534618604E-02
               1.0108216571890580E-03
              -5.3594003034070680E-03
               1.3004414178434603E-02
              -4.9138040842973138E-03
               1.2911292393524574E-03
               4.4101974990410370E-03
               2.1049090069972040E-04
               2.9502169380519238E-03
              -4.3176629602997493E-03
               1.1361337289465239E-02
               1.0498832341475435E-03
               4.1595256155707470E-03
               1.5710253174055317E-03
              -2.4668555485331070E-03
               4.0759438547507687E-03
               2.4024292939276446E-03
              -1.2076488796853982E-02
               1.1806062535739295E-03
              -2.3761082479530592E-03
              -4.0561716761619779E-03
              -2.5009723929167831E-03
               1.4630438671747953E-02
               9.1219952704008987E-03
              -1.3380634911081450E-03
               6.7009484844016481E-03
               9.2208199566468710E-03
              -8.4189028796334171E-03
              -8.5272871480331618E-03
              -1.7705888697340908E-03
               2.4362496186423163E-03
               3.3475462425683403E-03
               2.9249150278082329E-03
               4.5938325735542717E-03
              -6.8847813850098690E-04
              -7.0728610254970781E-03
              -2.5488102810693463E-04
               2.5508760860908221E-03
               9.4621707267538990E-03
               1.5646874642407103E-03
               1.0856905465258788E-02
              -2.7643897484123649E-04
               5.9890714640576485E-03
               1.3180221611244502E-03
              -1.7402487089050590E-03
              -9.4853853309305827E-04
              -1.0001552871801986E-03
              -9.0753886256475878E-03
               1.1196250450440058E-02
              -7.6479612905997994E-03
              -8.6734880173094560E-03
              -9.1681201442609761E-04
               7.3802634034495522E-03
              -4.9173594304177904E-03
               2.0875270949112939E-02
              -1.1116034816859414E-02
               7.5885499174070583E-03
              -2.1342449296096178E-02
               5.3050725832292402E-03
               1.9668096921722110E-03
               1.2691243656065060E-03
               7.2616383645207547E-03
               2.8911214236271868E-02
               9.1473175770266733E-03
               2.4755552448126897E-02
              -1.7428039724358786E-03
               1.1208273701471363E-02
               1.0656308548953941E-02
              -3.1346546558649537E-03
              -1.1311928986630561E-02
               7.1895159468842668E-03
               1.0793906983753033E-03
               5.3285670151134680E-03
              -6.3244381064014683E-03
              -1.5314399894950632E-02
               9.4951846489211063E-03
               5.3128674659202264E-04
               1.3706949179667735E-02
              -8.6507989387628395E-03
              -4.2717455623219091E-03
              -2.3524625592057109E-03
               8.7507239728200140E-03
               9.1031558332891928E-03
              -8.8653474909768310E-04
               1.3059214029953680E-02
              -5.1276915312904025E-03
              -1.0568736715669907E-03
              -5.1837002379210677E-03
               6.0660934449727928E-03
              -9.1775726994069919E-04
              -4.8613466237080157E-03
              -6.7164220352465701E-03
               1.2745887854416330E-02
              -2.8329716425390520E-03
              -1.9923408994537380E-02
               1.5723000011967334E-02
               1.3072205923754429E-02
              -1.5022777960092482E-02
               4.9889920722741470E-03
              -3.0038990722961751E-03
               7.7170614446498264E-03
               1.4196837978756243E-02
               6.7138731461457010E-03
              -1.3382203525322409E-02
              -1.8406946358079405E-03
              -5.4493133445230680E-03
               5.8155759077075393E-03
               5.7423900269183963E-03
              -4.2961525496815222E-05
              -6.6511442306422131E-04
              -6.0771062878051977E-03
               1.6016965668774353E-03
               9.2501246907662369E-04
              -6.8269245129565607E-03
              -4.3032913079930762E-03
               2.5342400529363572E-03
              -7.8003222922639450E-03
              -6.7249681653486935E-03
               5.7830115815296953E-03
              -4.4979115212508917E-03
               3.6665661984887864E-04
               6.7595507316096665E-03
              -7.0349725524573537E-03
               9.5134227377771958E-03
               6.0770655567968400E-03
               2.8061199680653238E-03
               3.6245661833539421E-04
               1.9703895769925201E-03
              -5.4382159459006553E-03
               4.2636450265965209E-03
               6.7323627989840209E-03
              -7.2808680362289758E-03
               1.4218699787001654E-02
              -2.6323542186781051E-03
               4.0734039476777711E-03
              -3.5784082749968425E-03
               3.7003148789760409E-03
               3.9592701635484256E-03
              -1.4915661888620963E-02
               8.3738122444490543E-03
               6.4408729110212604E-03
              -2.1414656259162936E-03
              -2.1083929920764207E-03
               9.3821398988849763E-03
               2.7530674516926578E-03
              -1.2621752234250549E-02
               1.9778524381377002E-02
               4.1633131758772000E-03
              -1.5899273450789845E-02
               2.8777479942190460E-03
              -1.1052579093835491E-02
               6.1503776762072667E-04
               2.6970831962945360E-03
              -3.6703898172901752E-03
               1.9736706266037856E-03
               2.6887389148819467E-03
              -7.0244324628925305E-03
               1.5692073489049588E-05
               2.6087834644736478E-03
               3.1428862375367734E-03
               1.1089330426305067E-02
              -4.6778965009664306E-03
              -8.0006265350534927E-04
               1.6998358752693499E-03
               8.1413702969108971E-03
               4.0781796350785752E-03
              -1.2340720040193071E-02
               3.9680889475404851E-03
              -2.1967969433635054E-03
               2.5618482983196479E-03
              -7.5166660799591653E-04
              -2.7485178453442640E-03
               2.1089946196033611E-03
               7.3293453139971609E-03
              -1.3751715829291987E-04
              -1.9170807401016440E-02
               2.6981149818864217E-03
               6.9528150627021926E-03
               1.1050869797669356E-02
              -8.9588533716132774E-04
               1.1951138939402359E-03
              -4.8375702628922944E-04
              -2.3174165970703119E-02
              -8.7353920115425731E-04
               8.8006670036141783E-03
               3.4053122634886222E-04
              -1.4894918244716184E-04
               1.6835297212551192E-03
              -6.3555306653186481E-03
               6.4517259068413149E-03
               1.3384116327318442E-03
               4.1884621538179172E-03
               8.4259853766536150E-03
               3.7732054742215231E-04
              -1.9423939676462651E-03
              -6.9579626536512345E-03
               7.2944281268538596E-04
              -5.8777432261045938E-03
               1.1111361265149745E-03
               4.4505990203754786E-03
               4.4001397840636386E-03
              -5.9083146624362062E-03
              -5.7262873744720029E-03
              -2.2204997734740660E-03
              -1.2691128333326934E-03
               2.5352453984700475E-03
              -2.1244401273713474E-03
               1.6624657814133094E-03
               5.0592654160242743E-03
              -9.7406090461084880E-04
              -2.3206832235272978E-03
               1.3000851650313235E-03
              -1.4512059571446410E-03
               1.3361086253832444E-02
              -8.3602938055343280E-03
              -4.6467633170244171E-03
              -2.1458834035811554E-03
               2.1319677107435849E-03
               1.7411526993829404E-02
              -3.3975695872788749E-03
              -6.5210831785142941E-04
              -1.0411314759372662E-03
               1.1355900574264574E-02
              -9.5562868558498604E-03
              -2.8261390482801170E-03
              -3.9868930321732103E-03
              -2.5075504356496655E-03
               3.9061556778163301E-03
              -4.2698612635175522E-03
              -1.7547909022974956E-02
              -1.5243821484401194E-02
               1.2226363599866338E-02
               1.4434830422294705E-02
               2.1793801422254318E-03
              -8.3823422344076227E-03
              -5.1767434139344181E-03
              -2.9678278495150791E-03
               9.2047160089944388E-03
               3.7329365821535897E-03
              -1.3598012856689034E-03
              -4.3944501277400922E-03
               1.4947307790825865E-02
               1.4854040386583860E-03
               4.0338985579695778E-03
               4.0743556354822328E-03
               1.2411643851964744E-02
               4.3544765287034173E-03
              -6.9585285528835821E-03
              -6.7543101867794568E-03
              -1.0037114553917663E-02
               1.7682766728656953E-03
              -2.7430014318669260E-03
               2.9431783613754745E-03
              -1.0676469081921478E-03
              -1.4021402364356639E-02
              -1.6247340878432635E-02
              -8.2137253000226680E-03
              -4.3726120840553153E-04
               1.2998768010894684E-02
               1.1906167895492974E-02
              -1.0500319325076565E-04
               1.1503908260092278E-02
               7.4005855845147633E-03
              -4.5633270579460454E-03
              -8.8638642626248480E-03
               5.1941212807406880E-03
               8.9232017419594856E-03
              -1.5565094106798840E-03
              -2.7557012362477091E-03
              -3.2900511029251337E-03
               9.4855277173727780E-03
              -2.6752021914302052E-03
              -7.9506021888298330E-03
               1.2562703199693612E-03
               5.9110805019620440E-03
               4.8969989730222709E-03
              -1.3029742014669212E-03
              -1.3731336588347633E-03
              -4.9125339673768897E-03
              -5.1897903873568164E-03
               9.5602356023119783E-03
               2.3411019126620041E-03
              -7.1904166253403319E-04
              -4.5934855079736141E-03
               4.8775150692689328E-04
              -6.5536154707350486E-03
               5.0004547007626585E-03
              -8.0956900028327557E-03
               6.1831837866105094E-03
               6.9925256128206721E-03
               7.0438068887678463E-03
              -9.0369466172558017E-04
              -1.1109523320193809E-04
              -1.1114755792407048E-02
               5.3634381406727182E-03
               2.5961384040631831E-03
               2.5738334950574462E-03
               7.5305178363449191E-03
               4.5105484889844437E-04
               9.0985961389081771E-03
              -9.3643695305873492E-03
               9.9770539875575891E-03
              -3.5484143828963615E-03
              -6.5207529389383241E-03
              -1.5861219997116670E-03
               5.2821988038253302E-03
               3.0069777444295910E-03
              -8.5083114664128833E-04
              -8.2825214208851645E-03
               9.8589210438014500E-03
              -1.4429371949822073E-03
              -6.5519320501941881E-03
               1.0876616249649478E-03
              -1.8947932465289714E-02
              -7.0672466553613686E-03
               7.9967980437167727E-03
               4.0808898035765429E-03
               7.4028508618953735E-03
              -1.7800248365533976E-02
               4.8814692562895272E-03
               1.6164266879741596E-03
               6.3757836454987060E-03
              -7.3436271189584786E-03
               7.5549801201086762E-04
              -5.4906620023718634E-03
              -3.7450460879857946E-03
               1.7085311021039766E-04
              -2.4153639589267139E-03
               8.0759895085265754E-03
               6.3397090928082652E-03
              -1.0743328565720703E-02
              -7.4692831865026225E-03
               3.1788019558627455E-03
              -1.2462805829923249E-04
               8.5607354111287039E-04
               1.6496286482654441E-04
               1.9861376105976998E-03
              -9.1403742857925855E-03
              -5.8173508206519546E-04
               3.4006163233808967E-03
              -5.7105354227779551E-03
              -1.3503279193008868E-03
               7.0893401350620219E-03
              -5.1022832057414196E-03
               1.0930967450294064E-02
              -7.2710664301587416E-03
               4.9548761894989835E-04
               1.1650757214029561E-02
              -2.9504013878766820E-04
              -1.0727693423099083E-02
               2.2973777722157538E-03
              -1.7881353984306584E-03
               2.7969466025613561E-03
               3.8373735576529328E-03
              -4.9183221849027504E-03
               3.3060917757902313E-03
               1.2031237937893659E-02
               7.1784800244159485E-03
               2.3351754352998726E-03
               5.8456568033627664E-03
              -2.8915819732507880E-03
               3.9392148285242561E-03
              -7.1011379184279366E-03
               7.1924752468835252E-03
              -5.8858603046577120E-03
              -4.8477872885990892E-03
               6.5718736216012754E-03
               3.3366122626952016E-03
              -2.1594271902776628E-03
              -1.2295281884121443E-03
              -1.4209618838476202E-03
              -1.1502250082020254E-02
               6.9781066324375515E-03
               6.5400745732255555E-03
               1.1040960911382213E-02
              -6.4880371284426592E-04
              -8.0490595425263666E-03
         &END THERMOSTAT_ENERGY
         &RNG_INIT
Wiener process for Thermostat # 1        1 F T T  -1.3877964172148927E+00        3819968671.0        1923139303.0        2505174482.0        1129753110.0        1102497896.0        2318485114.0             12345.0             12345.0             12345.0             12345.0             12345.0             12345.0             12345.0             12345.0             12345.0             12345.0             12345.0             12345.0
Wiener process for Thermostat # 2        1 F T T   5.9690975612399577E-01        1863048650.0        1167059563.0        4156553466.0        2659491592.0        2500563110.0        2967422577.0        3692455944.0        1366884236.0        2968912127.0         335948734.0        4161675175.0         475798818.0        3692455944.0        1366884236.0        2968912127.0         335948734.0        4161675175.0         475798818.0
Wiener process for Thermostat # 3        1 F T T  -1.9577134425325560E-01        2029679022.0        1992813296.0        1475024831.0        3744841000.0        4231717232.0        1872789393.0        1015873554.0        1310354410.0        2249465273.0         994084013.0        2912484720.0        3876682925.0        1015873554.0        1310354410.0        2249465273.0         994084013.0        2912484720.0        3876682925.0
Wiener process for Thermostat # 4        1 F T T  -5.5423907268054418E-01         972191078.0        3239779000.0        2283144792.0        4029872124.0        2868550739.0         388907277.0        2338701263.0        1119171942.0        2570676563.0         317077452.0        3194180850.0         618832124.0        2338701263.0        1119171942.0        2570676563.0         317077452.0        3194180850.0         618832124.0
Wiener process for Thermostat # 5        1 F T T  -3.6874052824979625E-01         246061856.0        2033992607.0        4208640487.0        3425480013.0        1713937449.0        3033523858.0        1597262096.0        3906379055.0        3312112953.0        1016013135.0        4099474108.0         275305423.0        1597262096.0        3906379055.0        3312112953.0        1016013135.0        4099474108.0         275305423.0
Wiener process for Thermostat # 6        1 F T T   5.7875332706651861E-01        4268450248.0        1240555256.0        2123119467.0         299173953.0        2368881629.0        2698044585.0          97147054.0        3131372450.0         829345164.0        3691032523.0        3006063034.0        4259826321.0          97147054.0        3131372450.0         829345164.0        3691032523.0        3006063034.0        4259826321.0
Wiener process for Thermostat # 7        1 F T T  -1.8983145396195047E+00        4260312323.0         705196258.0         937296972.0        1373994383.0        3179698350.0        3757299263.0         796079799.0        2105258207.0         955365076.0        2923159030.0        4116632677.0        3067683584.0         796079799.0        2105258207.0         955365076.0        2923159030.0        4116632677.0        3067683584.0
Wiener process for Thermostat # 8        1 F T T  -3.3116685260855833E-01        2351531572.0        3477839446.0        1021048571.0        1975906828.0        1893564842.0         777663015.0        3281794178.0        2616230133.0        1457051261.0        2762791137.0        2480527362.0        2282316169.0        3281794178.0        2616230133.0        1457051261.0        2762791137.0        2480527362.0        2282316169.0
Wiener process for Thermostat # 9        1 F T T   1.4386427466100791E+00        3265425123.0        2999969280.0        3048908474.0        1047403656.0         134736569.0        4209884843.0        3777646647.0        1837464056.0        4204654757.0         664239048.0        4190510072.0        2959195122.0        3777646647.0        1837464056.0        4204654757.0         664239048.0        4190510072.0        2959195122.0
Wiener process for Thermostat # 10       1 F T T  -2.3947144259907721E-01        2825100143.0        2025717467.0        3827127036.0        1422979577.0        1026966836.0        1481957392.0        4215590817.0        3862461878.0        1087200967.0        1544910132.0         936383720.0        1611370123.0        4215590817.0        3862461878.0        1087200967.0        1544910132.0         936383720.0        1611370123.0
Wiener process for Thermostat # 11       1 F T T   2.8146058156813852E-01        3161233422.0        2404453347.0        1673723662.0         906337025.0          73303549.0        1016746719.0        1683636369.0         362165168.0         814316280.0         869382050.0         980203903.0        2062101717.0        1683636369.0         362165168.0         814316280.0         869382050.0         980203903.0        2062101717.0
Wiener process for Thermostat # 12       1 F T T  -6.6211933450441895E-01         208754144.0        1983222026.0        1378772639.0         460703296.0         651350573.0        3898252829.0         272317999.0         166758548.0         310112982.0         201045826.0        1680231254.0         118290799.0         272317999.0         166758548.0         310112982.0         201045826.0        1680231254.0         118290799.0
Wiener process for Thermostat # 13       1 F T T   2.2418582236869027E-02         545702192.0         878923556.0         464381839.0        1267067492.0        3004786620.0        2258194530.0        2245755202.0        1652682525.0        2865544364.0         721509566.0         209733568.0         592362218.0        2245755202.0        1652682525.0        2865544364.0         721509566.0         209733568.0         592362218.0